p cnf 255 10025
-1 -2 0
-1 -3 0
-2 -3 0
-4 -5 0
-4 -6 0
-5 -6 0
-7 -8 0
-7 -9 0
-8 -9 0
-10 -11 0
-10 -12 0
-11 -12 0
-13 -14 0
-13 -15 0
-14 -15 0
-16 -17 0
-16 -18 0
-17 -18 0
-19 -20 0
-19 -21 0
-20 -21 0
-22 -23 0
-22 -24 0
-23 -24 0
-25 -26 0
-25 -27 0
-26 -27 0
-28 -29 0
-28 -30 0
-29 -30 0
-31 -32 0
-31 -33 0
-32 -33 0
-34 -35 0
-34 -36 0
-35 -36 0
-37 -38 0
-37 -39 0
-38 -39 0
-40 -41 0
-40 -42 0
-41 -42 0
-43 -44 0
-43 -45 0
-44 -45 0
-43 -2 -41 0
-43 -2 -80 0
-43 -2 -5 0
-43 -2 -83 0
-43 -2 -8 0
-43 -2 -47 0
-43 -2 -86 0
-43 -41 -80 0
-43 -41 -5 0
-43 -41 -83 0
-43 -41 -8 0
-43 -41 -47 0
-43 -41 -86 0
-43 -80 -5 0
-43 -80 -83 0
-43 -80 -8 0
-43 -80 -47 0
-43 -80 -86 0
-43 -5 -83 0
-43 -5 -8 0
-43 -5 -47 0
-43 -5 -86 0
-43 -83 -8 0
-43 -83 -47 0
-43 -83 -86 0
-43 -8 -47 0
-43 -8 -86 0
-43 -47 -86 0
-43 2 41 80 5 83 8 47 86 0
-44 -3 -42 -81 -6 0
-44 -3 -42 -81 -84 0
-44 -3 -42 -81 -9 0
-44 -3 -42 -81 -48 0
-44 -3 -42 -81 -87 0
-44 -3 -42 -6 -84 0
-44 -3 -42 -6 -9 0
-44 -3 -42 -6 -48 0
-44 -3 -42 -6 -87 0
-44 -3 -42 -84 -9 0
-44 -3 -42 -84 -48 0
-44 -3 -42 -84 -87 0
-44 -3 -42 -9 -48 0
-44 -3 -42 -9 -87 0
-44 -3 -42 -48 -87 0
-44 -3 -81 -6 -84 0
-44 -3 -81 -6 -9 0
-44 -3 -81 -6 -48 0
-44 -3 -81 -6 -87 0
-44 -3 -81 -84 -9 0
-44 -3 -81 -84 -48 0
-44 -3 -81 -84 -87 0
-44 -3 -81 -9 -48 0
-44 -3 -81 -9 -87 0
-44 -3 -81 -48 -87 0
-44 -3 -6 -84 -9 0
-44 -3 -6 -84 -48 0
-44 -3 -6 -84 -87 0
-44 -3 -6 -9 -48 0
-44 -3 -6 -9 -87 0
-44 -3 -6 -48 -87 0
-44 -3 -84 -9 -48 0
-44 -3 -84 -9 -87 0
-44 -3 -84 -48 -87 0
-44 -3 -9 -48 -87 0
-44 -42 -81 -6 -84 0
-44 -42 -81 -6 -9 0
-44 -42 -81 -6 -48 0
-44 -42 -81 -6 -87 0
-44 -42 -81 -84 -9 0
-44 -42 -81 -84 -48 0
-44 -42 -81 -84 -87 0
-44 -42 -81 -9 -48 0
-44 -42 -81 -9 -87 0
-44 -42 -81 -48 -87 0
-44 -42 -6 -84 -9 0
-44 -42 -6 -84 -48 0
-44 -42 -6 -84 -87 0
-44 -42 -6 -9 -48 0
-44 -42 -6 -9 -87 0
-44 -42 -6 -48 -87 0
-44 -42 -84 -9 -48 0
-44 -42 -84 -9 -87 0
-44 -42 -84 -48 -87 0
-44 -42 -9 -48 -87 0
-44 -81 -6 -84 -9 0
-44 -81 -6 -84 -48 0
-44 -81 -6 -84 -87 0
-44 -81 -6 -9 -48 0
-44 -81 -6 -9 -87 0
-44 -81 -6 -48 -87 0
-44 -81 -84 -9 -48 0
-44 -81 -84 -9 -87 0
-44 -81 -84 -48 -87 0
-44 -81 -9 -48 -87 0
-44 -6 -84 -9 -48 0
-44 -6 -84 -9 -87 0
-44 -6 -84 -48 -87 0
-44 -6 -9 -48 -87 0
-44 -84 -9 -48 -87 0
-44 3 42 81 6 84 9 0
-44 3 42 81 6 84 48 0
-44 3 42 81 6 84 87 0
-44 3 42 81 6 9 48 0
-44 3 42 81 6 9 87 0
-44 3 42 81 6 48 87 0
-44 3 42 81 84 9 48 0
-44 3 42 81 84 9 87 0
-44 3 42 81 84 48 87 0
-44 3 42 81 9 48 87 0
-44 3 42 6 84 9 48 0
-44 3 42 6 84 9 87 0
-44 3 42 6 84 48 87 0
-44 3 42 6 9 48 87 0
-44 3 42 84 9 48 87 0
-44 3 81 6 84 9 48 0
-44 3 81 6 84 9 87 0
-44 3 81 6 84 48 87 0
-44 3 81 6 9 48 87 0
-44 3 81 84 9 48 87 0
-44 3 6 84 9 48 87 0
-44 42 81 6 84 9 48 0
-44 42 81 6 84 9 87 0
-44 42 81 6 84 48 87 0
-44 42 81 6 9 48 87 0
-44 42 81 84 9 48 87 0
-44 42 6 84 9 48 87 0
-44 81 6 84 9 48 87 0
-45 -1 -40 -79 -4 -82 -7 -46 0
-45 -1 -40 -79 -4 -82 -7 -85 0
-45 -1 -40 -79 -4 -82 -46 -85 0
-45 -1 -40 -79 -4 -7 -46 -85 0
-45 -1 -40 -79 -82 -7 -46 -85 0
-45 -1 -40 -4 -82 -7 -46 -85 0
-45 -1 -79 -4 -82 -7 -46 -85 0
-45 -40 -79 -4 -82 -7 -46 -85 0
-45 1 40 79 0
-45 1 40 4 0
-45 1 40 82 0
-45 1 40 7 0
-45 1 40 46 0
-45 1 40 85 0
-45 1 79 4 0
-45 1 79 82 0
-45 1 79 7 0
-45 1 79 46 0
-45 1 79 85 0
-45 1 4 82 0
-45 1 4 7 0
-45 1 4 46 0
-45 1 4 85 0
-45 1 82 7 0
-45 1 82 46 0
-45 1 82 85 0
-45 1 7 46 0
-45 1 7 85 0
-45 1 46 85 0
-45 40 79 4 0
-45 40 79 82 0
-45 40 79 7 0
-45 40 79 46 0
-45 40 79 85 0
-45 40 4 82 0
-45 40 4 7 0
-45 40 4 46 0
-45 40 4 85 0
-45 40 82 7 0
-45 40 82 46 0
-45 40 82 85 0
-45 40 7 46 0
-45 40 7 85 0
-45 40 46 85 0
-45 79 4 82 0
-45 79 4 7 0
-45 79 4 46 0
-45 79 4 85 0
-45 79 82 7 0
-45 79 82 46 0
-45 79 82 85 0
-45 79 7 46 0
-45 79 7 85 0
-45 79 46 85 0
-45 4 82 7 0
-45 4 82 46 0
-45 4 82 85 0
-45 4 7 46 0
-45 4 7 85 0
-45 4 46 85 0
-45 82 7 46 0
-45 82 7 85 0
-45 82 46 85 0
-45 7 46 85 0
-46 -47 0
-46 -48 0
-47 -48 0
-46 -5 -44 0
-46 -5 -83 0
-46 -5 -8 0
-46 -5 -86 0
-46 -5 -11 0
-46 -5 -50 0
-46 -5 -89 0
-46 -44 -83 0
-46 -44 -8 0
-46 -44 -86 0
-46 -44 -11 0
-46 -44 -50 0
-46 -44 -89 0
-46 -83 -8 0
-46 -83 -86 0
-46 -83 -11 0
-46 -83 -50 0
-46 -83 -89 0
-46 -8 -86 0
-46 -8 -11 0
-46 -8 -50 0
-46 -8 -89 0
-46 -86 -11 0
-46 -86 -50 0
-46 -86 -89 0
-46 -11 -50 0
-46 -11 -89 0
-46 -50 -89 0
-46 5 44 83 8 86 11 50 89 0
-47 -6 -45 -84 -9 0
-47 -6 -45 -84 -87 0
-47 -6 -45 -84 -12 0
-47 -6 -45 -84 -51 0
-47 -6 -45 -84 -90 0
-47 -6 -45 -9 -87 0
-47 -6 -45 -9 -12 0
-47 -6 -45 -9 -51 0
-47 -6 -45 -9 -90 0
-47 -6 -45 -87 -12 0
-47 -6 -45 -87 -51 0
-47 -6 -45 -87 -90 0
-47 -6 -45 -12 -51 0
-47 -6 -45 -12 -90 0
-47 -6 -45 -51 -90 0
-47 -6 -84 -9 -87 0
-47 -6 -84 -9 -12 0
-47 -6 -84 -9 -51 0
-47 -6 -84 -9 -90 0
-47 -6 -84 -87 -12 0
-47 -6 -84 -87 -51 0
-47 -6 -84 -87 -90 0
-47 -6 -84 -12 -51 0
-47 -6 -84 -12 -90 0
-47 -6 -84 -51 -90 0
-47 -6 -9 -87 -12 0
-47 -6 -9 -87 -51 0
-47 -6 -9 -87 -90 0
-47 -6 -9 -12 -51 0
-47 -6 -9 -12 -90 0
-47 -6 -9 -51 -90 0
-47 -6 -87 -12 -51 0
-47 -6 -87 -12 -90 0
-47 -6 -87 -51 -90 0
-47 -6 -12 -51 -90 0
-47 -45 -84 -9 -87 0
-47 -45 -84 -9 -12 0
-47 -45 -84 -9 -51 0
-47 -45 -84 -9 -90 0
-47 -45 -84 -87 -12 0
-47 -45 -84 -87 -51 0
-47 -45 -84 -87 -90 0
-47 -45 -84 -12 -51 0
-47 -45 -84 -12 -90 0
-47 -45 -84 -51 -90 0
-47 -45 -9 -87 -12 0
-47 -45 -9 -87 -51 0
-47 -45 -9 -87 -90 0
-47 -45 -9 -12 -51 0
-47 -45 -9 -12 -90 0
-47 -45 -9 -51 -90 0
-47 -45 -87 -12 -51 0
-47 -45 -87 -12 -90 0
-47 -45 -87 -51 -90 0
-47 -45 -12 -51 -90 0
-47 -84 -9 -87 -12 0
-47 -84 -9 -87 -51 0
-47 -84 -9 -87 -90 0
-47 -84 -9 -12 -51 0
-47 -84 -9 -12 -90 0
-47 -84 -9 -51 -90 0
-47 -84 -87 -12 -51 0
-47 -84 -87 -12 -90 0
-47 -84 -87 -51 -90 0
-47 -84 -12 -51 -90 0
-47 -9 -87 -12 -51 0
-47 -9 -87 -12 -90 0
-47 -9 -87 -51 -90 0
-47 -9 -12 -51 -90 0
-47 -87 -12 -51 -90 0
-47 6 45 84 9 87 12 0
-47 6 45 84 9 87 51 0
-47 6 45 84 9 87 90 0
-47 6 45 84 9 12 51 0
-47 6 45 84 9 12 90 0
-47 6 45 84 9 51 90 0
-47 6 45 84 87 12 51 0
-47 6 45 84 87 12 90 0
-47 6 45 84 87 51 90 0
-47 6 45 84 12 51 90 0
-47 6 45 9 87 12 51 0
-47 6 45 9 87 12 90 0
-47 6 45 9 87 51 90 0
-47 6 45 9 12 51 90 0
-47 6 45 87 12 51 90 0
-47 6 84 9 87 12 51 0
-47 6 84 9 87 12 90 0
-47 6 84 9 87 51 90 0
-47 6 84 9 12 51 90 0
-47 6 84 87 12 51 90 0
-47 6 9 87 12 51 90 0
-47 45 84 9 87 12 51 0
-47 45 84 9 87 12 90 0
-47 45 84 9 87 51 90 0
-47 45 84 9 12 51 90 0
-47 45 84 87 12 51 90 0
-47 45 9 87 12 51 90 0
-47 84 9 87 12 51 90 0
-48 -4 -43 -82 -7 -85 -10 -49 0
-48 -4 -43 -82 -7 -85 -10 -88 0
-48 -4 -43 -82 -7 -85 -49 -88 0
-48 -4 -43 -82 -7 -10 -49 -88 0
-48 -4 -43 -82 -85 -10 -49 -88 0
-48 -4 -43 -7 -85 -10 -49 -88 0
-48 -4 -82 -7 -85 -10 -49 -88 0
-48 -43 -82 -7 -85 -10 -49 -88 0
-48 4 43 82 0
-48 4 43 7 0
-48 4 43 85 0
-48 4 43 10 0
-48 4 43 49 0
-48 4 43 88 0
-48 4 82 7 0
-48 4 82 85 0
-48 4 82 10 0
-48 4 82 49 0
-48 4 82 88 0
-48 4 7 85 0
-48 4 7 10 0
-48 4 7 49 0
-48 4 7 88 0
-48 4 85 10 0
-48 4 85 49 0
-48 4 85 88 0
-48 4 10 49 0
-48 4 10 88 0
-48 4 49 88 0
-48 43 82 7 0
-48 43 82 85 0
-48 43 82 10 0
-48 43 82 49 0
-48 43 82 88 0
-48 43 7 85 0
-48 43 7 10 0
-48 43 7 49 0
-48 43 7 88 0
-48 43 85 10 0
-48 43 85 49 0
-48 43 85 88 0
-48 43 10 49 0
-48 43 10 88 0
-48 43 49 88 0
-48 82 7 85 0
-48 82 7 10 0
-48 82 7 49 0
-48 82 7 88 0
-48 82 85 10 0
-48 82 85 49 0
-48 82 85 88 0
-48 82 10 49 0
-48 82 10 88 0
-48 82 49 88 0
-48 7 85 10 0
-48 7 85 49 0
-48 7 85 88 0
-48 7 10 49 0
-48 7 10 88 0
-48 7 49 88 0
-48 85 10 49 0
-48 85 10 88 0
-48 85 49 88 0
-48 10 49 88 0
-49 -50 0
-49 -51 0
-50 -51 0
-49 -8 -47 0
-49 -8 -86 0
-49 -8 -11 0
-49 -8 -89 0
-49 -8 -14 0
-49 -8 -53 0
-49 -8 -92 0
-49 -47 -86 0
-49 -47 -11 0
-49 -47 -89 0
-49 -47 -14 0
-49 -47 -53 0
-49 -47 -92 0
-49 -86 -11 0
-49 -86 -89 0
-49 -86 -14 0
-49 -86 -53 0
-49 -86 -92 0
-49 -11 -89 0
-49 -11 -14 0
-49 -11 -53 0
-49 -11 -92 0
-49 -89 -14 0
-49 -89 -53 0
-49 -89 -92 0
-49 -14 -53 0
-49 -14 -92 0
-49 -53 -92 0
-49 8 47 86 11 89 14 53 92 0
-50 -9 -48 -87 -12 0
-50 -9 -48 -87 -90 0
-50 -9 -48 -87 -15 0
-50 -9 -48 -87 -54 0
-50 -9 -48 -87 -93 0
-50 -9 -48 -12 -90 0
-50 -9 -48 -12 -15 0
-50 -9 -48 -12 -54 0
-50 -9 -48 -12 -93 0
-50 -9 -48 -90 -15 0
-50 -9 -48 -90 -54 0
-50 -9 -48 -90 -93 0
-50 -9 -48 -15 -54 0
-50 -9 -48 -15 -93 0
-50 -9 -48 -54 -93 0
-50 -9 -87 -12 -90 0
-50 -9 -87 -12 -15 0
-50 -9 -87 -12 -54 0
-50 -9 -87 -12 -93 0
-50 -9 -87 -90 -15 0
-50 -9 -87 -90 -54 0
-50 -9 -87 -90 -93 0
-50 -9 -87 -15 -54 0
-50 -9 -87 -15 -93 0
-50 -9 -87 -54 -93 0
-50 -9 -12 -90 -15 0
-50 -9 -12 -90 -54 0
-50 -9 -12 -90 -93 0
-50 -9 -12 -15 -54 0
-50 -9 -12 -15 -93 0
-50 -9 -12 -54 -93 0
-50 -9 -90 -15 -54 0
-50 -9 -90 -15 -93 0
-50 -9 -90 -54 -93 0
-50 -9 -15 -54 -93 0
-50 -48 -87 -12 -90 0
-50 -48 -87 -12 -15 0
-50 -48 -87 -12 -54 0
-50 -48 -87 -12 -93 0
-50 -48 -87 -90 -15 0
-50 -48 -87 -90 -54 0
-50 -48 -87 -90 -93 0
-50 -48 -87 -15 -54 0
-50 -48 -87 -15 -93 0
-50 -48 -87 -54 -93 0
-50 -48 -12 -90 -15 0
-50 -48 -12 -90 -54 0
-50 -48 -12 -90 -93 0
-50 -48 -12 -15 -54 0
-50 -48 -12 -15 -93 0
-50 -48 -12 -54 -93 0
-50 -48 -90 -15 -54 0
-50 -48 -90 -15 -93 0
-50 -48 -90 -54 -93 0
-50 -48 -15 -54 -93 0
-50 -87 -12 -90 -15 0
-50 -87 -12 -90 -54 0
-50 -87 -12 -90 -93 0
-50 -87 -12 -15 -54 0
-50 -87 -12 -15 -93 0
-50 -87 -12 -54 -93 0
-50 -87 -90 -15 -54 0
-50 -87 -90 -15 -93 0
-50 -87 -90 -54 -93 0
-50 -87 -15 -54 -93 0
-50 -12 -90 -15 -54 0
-50 -12 -90 -15 -93 0
-50 -12 -90 -54 -93 0
-50 -12 -15 -54 -93 0
-50 -90 -15 -54 -93 0
-50 9 48 87 12 90 15 0
-50 9 48 87 12 90 54 0
-50 9 48 87 12 90 93 0
-50 9 48 87 12 15 54 0
-50 9 48 87 12 15 93 0
-50 9 48 87 12 54 93 0
-50 9 48 87 90 15 54 0
-50 9 48 87 90 15 93 0
-50 9 48 87 90 54 93 0
-50 9 48 87 15 54 93 0
-50 9 48 12 90 15 54 0
-50 9 48 12 90 15 93 0
-50 9 48 12 90 54 93 0
-50 9 48 12 15 54 93 0
-50 9 48 90 15 54 93 0
-50 9 87 12 90 15 54 0
-50 9 87 12 90 15 93 0
-50 9 87 12 90 54 93 0
-50 9 87 12 15 54 93 0
-50 9 87 90 15 54 93 0
-50 9 12 90 15 54 93 0
-50 48 87 12 90 15 54 0
-50 48 87 12 90 15 93 0
-50 48 87 12 90 54 93 0
-50 48 87 12 15 54 93 0
-50 48 87 90 15 54 93 0
-50 48 12 90 15 54 93 0
-50 87 12 90 15 54 93 0
-51 -7 -46 -85 -10 -88 -13 -52 0
-51 -7 -46 -85 -10 -88 -13 -91 0
-51 -7 -46 -85 -10 -88 -52 -91 0
-51 -7 -46 -85 -10 -13 -52 -91 0
-51 -7 -46 -85 -88 -13 -52 -91 0
-51 -7 -46 -10 -88 -13 -52 -91 0
-51 -7 -85 -10 -88 -13 -52 -91 0
-51 -46 -85 -10 -88 -13 -52 -91 0
-51 7 46 85 0
-51 7 46 10 0
-51 7 46 88 0
-51 7 46 13 0
-51 7 46 52 0
-51 7 46 91 0
-51 7 85 10 0
-51 7 85 88 0
-51 7 85 13 0
-51 7 85 52 0
-51 7 85 91 0
-51 7 10 88 0
-51 7 10 13 0
-51 7 10 52 0
-51 7 10 91 0
-51 7 88 13 0
-51 7 88 52 0
-51 7 88 91 0
-51 7 13 52 0
-51 7 13 91 0
-51 7 52 91 0
-51 46 85 10 0
-51 46 85 88 0
-51 46 85 13 0
-51 46 85 52 0
-51 46 85 91 0
-51 46 10 88 0
-51 46 10 13 0
-51 46 10 52 0
-51 46 10 91 0
-51 46 88 13 0
-51 46 88 52 0
-51 46 88 91 0
-51 46 13 52 0
-51 46 13 91 0
-51 46 52 91 0
-51 85 10 88 0
-51 85 10 13 0
-51 85 10 52 0
-51 85 10 91 0
-51 85 88 13 0
-51 85 88 52 0
-51 85 88 91 0
-51 85 13 52 0
-51 85 13 91 0
-51 85 52 91 0
-51 10 88 13 0
-51 10 88 52 0
-51 10 88 91 0
-51 10 13 52 0
-51 10 13 91 0
-51 10 52 91 0
-51 88 13 52 0
-51 88 13 91 0
-51 88 52 91 0
-51 13 52 91 0
-52 -53 0
-52 -54 0
-53 -54 0
-52 -11 -50 0
-52 -11 -89 0
-52 -11 -14 0
-52 -11 -92 0
-52 -11 -17 0
-52 -11 -56 0
-52 -11 -95 0
-52 -50 -89 0
-52 -50 -14 0
-52 -50 -92 0
-52 -50 -17 0
-52 -50 -56 0
-52 -50 -95 0
-52 -89 -14 0
-52 -89 -92 0
-52 -89 -17 0
-52 -89 -56 0
-52 -89 -95 0
-52 -14 -92 0
-52 -14 -17 0
-52 -14 -56 0
-52 -14 -95 0
-52 -92 -17 0
-52 -92 -56 0
-52 -92 -95 0
-52 -17 -56 0
-52 -17 -95 0
-52 -56 -95 0
-52 11 50 89 14 92 17 56 95 0
-53 -12 -51 -90 -15 0
-53 -12 -51 -90 -93 0
-53 -12 -51 -90 -18 0
-53 -12 -51 -90 -57 0
-53 -12 -51 -90 -96 0
-53 -12 -51 -15 -93 0
-53 -12 -51 -15 -18 0
-53 -12 -51 -15 -57 0
-53 -12 -51 -15 -96 0
-53 -12 -51 -93 -18 0
-53 -12 -51 -93 -57 0
-53 -12 -51 -93 -96 0
-53 -12 -51 -18 -57 0
-53 -12 -51 -18 -96 0
-53 -12 -51 -57 -96 0
-53 -12 -90 -15 -93 0
-53 -12 -90 -15 -18 0
-53 -12 -90 -15 -57 0
-53 -12 -90 -15 -96 0
-53 -12 -90 -93 -18 0
-53 -12 -90 -93 -57 0
-53 -12 -90 -93 -96 0
-53 -12 -90 -18 -57 0
-53 -12 -90 -18 -96 0
-53 -12 -90 -57 -96 0
-53 -12 -15 -93 -18 0
-53 -12 -15 -93 -57 0
-53 -12 -15 -93 -96 0
-53 -12 -15 -18 -57 0
-53 -12 -15 -18 -96 0
-53 -12 -15 -57 -96 0
-53 -12 -93 -18 -57 0
-53 -12 -93 -18 -96 0
-53 -12 -93 -57 -96 0
-53 -12 -18 -57 -96 0
-53 -51 -90 -15 -93 0
-53 -51 -90 -15 -18 0
-53 -51 -90 -15 -57 0
-53 -51 -90 -15 -96 0
-53 -51 -90 -93 -18 0
-53 -51 -90 -93 -57 0
-53 -51 -90 -93 -96 0
-53 -51 -90 -18 -57 0
-53 -51 -90 -18 -96 0
-53 -51 -90 -57 -96 0
-53 -51 -15 -93 -18 0
-53 -51 -15 -93 -57 0
-53 -51 -15 -93 -96 0
-53 -51 -15 -18 -57 0
-53 -51 -15 -18 -96 0
-53 -51 -15 -57 -96 0
-53 -51 -93 -18 -57 0
-53 -51 -93 -18 -96 0
-53 -51 -93 -57 -96 0
-53 -51 -18 -57 -96 0
-53 -90 -15 -93 -18 0
-53 -90 -15 -93 -57 0
-53 -90 -15 -93 -96 0
-53 -90 -15 -18 -57 0
-53 -90 -15 -18 -96 0
-53 -90 -15 -57 -96 0
-53 -90 -93 -18 -57 0
-53 -90 -93 -18 -96 0
-53 -90 -93 -57 -96 0
-53 -90 -18 -57 -96 0
-53 -15 -93 -18 -57 0
-53 -15 -93 -18 -96 0
-53 -15 -93 -57 -96 0
-53 -15 -18 -57 -96 0
-53 -93 -18 -57 -96 0
-53 12 51 90 15 93 18 0
-53 12 51 90 15 93 57 0
-53 12 51 90 15 93 96 0
-53 12 51 90 15 18 57 0
-53 12 51 90 15 18 96 0
-53 12 51 90 15 57 96 0
-53 12 51 90 93 18 57 0
-53 12 51 90 93 18 96 0
-53 12 51 90 93 57 96 0
-53 12 51 90 18 57 96 0
-53 12 51 15 93 18 57 0
-53 12 51 15 93 18 96 0
-53 12 51 15 93 57 96 0
-53 12 51 15 18 57 96 0
-53 12 51 93 18 57 96 0
-53 12 90 15 93 18 57 0
-53 12 90 15 93 18 96 0
-53 12 90 15 93 57 96 0
-53 12 90 15 18 57 96 0
-53 12 90 93 18 57 96 0
-53 12 15 93 18 57 96 0
-53 51 90 15 93 18 57 0
-53 51 90 15 93 18 96 0
-53 51 90 15 93 57 96 0
-53 51 90 15 18 57 96 0
-53 51 90 93 18 57 96 0
-53 51 15 93 18 57 96 0
-53 90 15 93 18 57 96 0
-54 -10 -49 -88 -13 -91 -16 -55 0
-54 -10 -49 -88 -13 -91 -16 -94 0
-54 -10 -49 -88 -13 -91 -55 -94 0
-54 -10 -49 -88 -13 -16 -55 -94 0
-54 -10 -49 -88 -91 -16 -55 -94 0
-54 -10 -49 -13 -91 -16 -55 -94 0
-54 -10 -88 -13 -91 -16 -55 -94 0
-54 -49 -88 -13 -91 -16 -55 -94 0
-54 10 49 88 0
-54 10 49 13 0
-54 10 49 91 0
-54 10 49 16 0
-54 10 49 55 0
-54 10 49 94 0
-54 10 88 13 0
-54 10 88 91 0
-54 10 88 16 0
-54 10 88 55 0
-54 10 88 94 0
-54 10 13 91 0
-54 10 13 16 0
-54 10 13 55 0
-54 10 13 94 0
-54 10 91 16 0
-54 10 91 55 0
-54 10 91 94 0
-54 10 16 55 0
-54 10 16 94 0
-54 10 55 94 0
-54 49 88 13 0
-54 49 88 91 0
-54 49 88 16 0
-54 49 88 55 0
-54 49 88 94 0
-54 49 13 91 0
-54 49 13 16 0
-54 49 13 55 0
-54 49 13 94 0
-54 49 91 16 0
-54 49 91 55 0
-54 49 91 94 0
-54 49 16 55 0
-54 49 16 94 0
-54 49 55 94 0
-54 88 13 91 0
-54 88 13 16 0
-54 88 13 55 0
-54 88 13 94 0
-54 88 91 16 0
-54 88 91 55 0
-54 88 91 94 0
-54 88 16 55 0
-54 88 16 94 0
-54 88 55 94 0
-54 13 91 16 0
-54 13 91 55 0
-54 13 91 94 0
-54 13 16 55 0
-54 13 16 94 0
-54 13 55 94 0
-54 91 16 55 0
-54 91 16 94 0
-54 91 55 94 0
-54 16 55 94 0
-55 -56 0
-55 -57 0
-56 -57 0
-55 -14 -53 0
-55 -14 -92 0
-55 -14 -17 0
-55 -14 -95 0
-55 -14 -20 0
-55 -14 -59 0
-55 -14 -98 0
-55 -53 -92 0
-55 -53 -17 0
-55 -53 -95 0
-55 -53 -20 0
-55 -53 -59 0
-55 -53 -98 0
-55 -92 -17 0
-55 -92 -95 0
-55 -92 -20 0
-55 -92 -59 0
-55 -92 -98 0
-55 -17 -95 0
-55 -17 -20 0
-55 -17 -59 0
-55 -17 -98 0
-55 -95 -20 0
-55 -95 -59 0
-55 -95 -98 0
-55 -20 -59 0
-55 -20 -98 0
-55 -59 -98 0
-55 14 53 92 17 95 20 59 98 0
-56 -15 -54 -93 -18 0
-56 -15 -54 -93 -96 0
-56 -15 -54 -93 -21 0
-56 -15 -54 -93 -60 0
-56 -15 -54 -93 -99 0
-56 -15 -54 -18 -96 0
-56 -15 -54 -18 -21 0
-56 -15 -54 -18 -60 0
-56 -15 -54 -18 -99 0
-56 -15 -54 -96 -21 0
-56 -15 -54 -96 -60 0
-56 -15 -54 -96 -99 0
-56 -15 -54 -21 -60 0
-56 -15 -54 -21 -99 0
-56 -15 -54 -60 -99 0
-56 -15 -93 -18 -96 0
-56 -15 -93 -18 -21 0
-56 -15 -93 -18 -60 0
-56 -15 -93 -18 -99 0
-56 -15 -93 -96 -21 0
-56 -15 -93 -96 -60 0
-56 -15 -93 -96 -99 0
-56 -15 -93 -21 -60 0
-56 -15 -93 -21 -99 0
-56 -15 -93 -60 -99 0
-56 -15 -18 -96 -21 0
-56 -15 -18 -96 -60 0
-56 -15 -18 -96 -99 0
-56 -15 -18 -21 -60 0
-56 -15 -18 -21 -99 0
-56 -15 -18 -60 -99 0
-56 -15 -96 -21 -60 0
-56 -15 -96 -21 -99 0
-56 -15 -96 -60 -99 0
-56 -15 -21 -60 -99 0
-56 -54 -93 -18 -96 0
-56 -54 -93 -18 -21 0
-56 -54 -93 -18 -60 0
-56 -54 -93 -18 -99 0
-56 -54 -93 -96 -21 0
-56 -54 -93 -96 -60 0
-56 -54 -93 -96 -99 0
-56 -54 -93 -21 -60 0
-56 -54 -93 -21 -99 0
-56 -54 -93 -60 -99 0
-56 -54 -18 -96 -21 0
-56 -54 -18 -96 -60 0
-56 -54 -18 -96 -99 0
-56 -54 -18 -21 -60 0
-56 -54 -18 -21 -99 0
-56 -54 -18 -60 -99 0
-56 -54 -96 -21 -60 0
-56 -54 -96 -21 -99 0
-56 -54 -96 -60 -99 0
-56 -54 -21 -60 -99 0
-56 -93 -18 -96 -21 0
-56 -93 -18 -96 -60 0
-56 -93 -18 -96 -99 0
-56 -93 -18 -21 -60 0
-56 -93 -18 -21 -99 0
-56 -93 -18 -60 -99 0
-56 -93 -96 -21 -60 0
-56 -93 -96 -21 -99 0
-56 -93 -96 -60 -99 0
-56 -93 -21 -60 -99 0
-56 -18 -96 -21 -60 0
-56 -18 -96 -21 -99 0
-56 -18 -96 -60 -99 0
-56 -18 -21 -60 -99 0
-56 -96 -21 -60 -99 0
-56 15 54 93 18 96 21 0
-56 15 54 93 18 96 60 0
-56 15 54 93 18 96 99 0
-56 15 54 93 18 21 60 0
-56 15 54 93 18 21 99 0
-56 15 54 93 18 60 99 0
-56 15 54 93 96 21 60 0
-56 15 54 93 96 21 99 0
-56 15 54 93 96 60 99 0
-56 15 54 93 21 60 99 0
-56 15 54 18 96 21 60 0
-56 15 54 18 96 21 99 0
-56 15 54 18 96 60 99 0
-56 15 54 18 21 60 99 0
-56 15 54 96 21 60 99 0
-56 15 93 18 96 21 60 0
-56 15 93 18 96 21 99 0
-56 15 93 18 96 60 99 0
-56 15 93 18 21 60 99 0
-56 15 93 96 21 60 99 0
-56 15 18 96 21 60 99 0
-56 54 93 18 96 21 60 0
-56 54 93 18 96 21 99 0
-56 54 93 18 96 60 99 0
-56 54 93 18 21 60 99 0
-56 54 93 96 21 60 99 0
-56 54 18 96 21 60 99 0
-56 93 18 96 21 60 99 0
-57 -13 -52 -91 -16 -94 -19 -58 0
-57 -13 -52 -91 -16 -94 -19 -97 0
-57 -13 -52 -91 -16 -94 -58 -97 0
-57 -13 -52 -91 -16 -19 -58 -97 0
-57 -13 -52 -91 -94 -19 -58 -97 0
-57 -13 -52 -16 -94 -19 -58 -97 0
-57 -13 -91 -16 -94 -19 -58 -97 0
-57 -52 -91 -16 -94 -19 -58 -97 0
-57 13 52 91 0
-57 13 52 16 0
-57 13 52 94 0
-57 13 52 19 0
-57 13 52 58 0
-57 13 52 97 0
-57 13 91 16 0
-57 13 91 94 0
-57 13 91 19 0
-57 13 91 58 0
-57 13 91 97 0
-57 13 16 94 0
-57 13 16 19 0
-57 13 16 58 0
-57 13 16 97 0
-57 13 94 19 0
-57 13 94 58 0
-57 13 94 97 0
-57 13 19 58 0
-57 13 19 97 0
-57 13 58 97 0
-57 52 91 16 0
-57 52 91 94 0
-57 52 91 19 0
-57 52 91 58 0
-57 52 91 97 0
-57 52 16 94 0
-57 52 16 19 0
-57 52 16 58 0
-57 52 16 97 0
-57 52 94 19 0
-57 52 94 58 0
-57 52 94 97 0
-57 52 19 58 0
-57 52 19 97 0
-57 52 58 97 0
-57 91 16 94 0
-57 91 16 19 0
-57 91 16 58 0
-57 91 16 97 0
-57 91 94 19 0
-57 91 94 58 0
-57 91 94 97 0
-57 91 19 58 0
-57 91 19 97 0
-57 91 58 97 0
-57 16 94 19 0
-57 16 94 58 0
-57 16 94 97 0
-57 16 19 58 0
-57 16 19 97 0
-57 16 58 97 0
-57 94 19 58 0
-57 94 19 97 0
-57 94 58 97 0
-57 19 58 97 0
-58 -59 0
-58 -60 0
-59 -60 0
-58 -17 -56 0
-58 -17 -95 0
-58 -17 -20 0
-58 -17 -98 0
-58 -17 -23 0
-58 -17 -62 0
-58 -17 -101 0
-58 -56 -95 0
-58 -56 -20 0
-58 -56 -98 0
-58 -56 -23 0
-58 -56 -62 0
-58 -56 -101 0
-58 -95 -20 0
-58 -95 -98 0
-58 -95 -23 0
-58 -95 -62 0
-58 -95 -101 0
-58 -20 -98 0
-58 -20 -23 0
-58 -20 -62 0
-58 -20 -101 0
-58 -98 -23 0
-58 -98 -62 0
-58 -98 -101 0
-58 -23 -62 0
-58 -23 -101 0
-58 -62 -101 0
-58 17 56 95 20 98 23 62 101 0
-59 -18 -57 -96 -21 0
-59 -18 -57 -96 -99 0
-59 -18 -57 -96 -24 0
-59 -18 -57 -96 -63 0
-59 -18 -57 -96 -102 0
-59 -18 -57 -21 -99 0
-59 -18 -57 -21 -24 0
-59 -18 -57 -21 -63 0
-59 -18 -57 -21 -102 0
-59 -18 -57 -99 -24 0
-59 -18 -57 -99 -63 0
-59 -18 -57 -99 -102 0
-59 -18 -57 -24 -63 0
-59 -18 -57 -24 -102 0
-59 -18 -57 -63 -102 0
-59 -18 -96 -21 -99 0
-59 -18 -96 -21 -24 0
-59 -18 -96 -21 -63 0
-59 -18 -96 -21 -102 0
-59 -18 -96 -99 -24 0
-59 -18 -96 -99 -63 0
-59 -18 -96 -99 -102 0
-59 -18 -96 -24 -63 0
-59 -18 -96 -24 -102 0
-59 -18 -96 -63 -102 0
-59 -18 -21 -99 -24 0
-59 -18 -21 -99 -63 0
-59 -18 -21 -99 -102 0
-59 -18 -21 -24 -63 0
-59 -18 -21 -24 -102 0
-59 -18 -21 -63 -102 0
-59 -18 -99 -24 -63 0
-59 -18 -99 -24 -102 0
-59 -18 -99 -63 -102 0
-59 -18 -24 -63 -102 0
-59 -57 -96 -21 -99 0
-59 -57 -96 -21 -24 0
-59 -57 -96 -21 -63 0
-59 -57 -96 -21 -102 0
-59 -57 -96 -99 -24 0
-59 -57 -96 -99 -63 0
-59 -57 -96 -99 -102 0
-59 -57 -96 -24 -63 0
-59 -57 -96 -24 -102 0
-59 -57 -96 -63 -102 0
-59 -57 -21 -99 -24 0
-59 -57 -21 -99 -63 0
-59 -57 -21 -99 -102 0
-59 -57 -21 -24 -63 0
-59 -57 -21 -24 -102 0
-59 -57 -21 -63 -102 0
-59 -57 -99 -24 -63 0
-59 -57 -99 -24 -102 0
-59 -57 -99 -63 -102 0
-59 -57 -24 -63 -102 0
-59 -96 -21 -99 -24 0
-59 -96 -21 -99 -63 0
-59 -96 -21 -99 -102 0
-59 -96 -21 -24 -63 0
-59 -96 -21 -24 -102 0
-59 -96 -21 -63 -102 0
-59 -96 -99 -24 -63 0
-59 -96 -99 -24 -102 0
-59 -96 -99 -63 -102 0
-59 -96 -24 -63 -102 0
-59 -21 -99 -24 -63 0
-59 -21 -99 -24 -102 0
-59 -21 -99 -63 -102 0
-59 -21 -24 -63 -102 0
-59 -99 -24 -63 -102 0
-59 18 57 96 21 99 24 0
-59 18 57 96 21 99 63 0
-59 18 57 96 21 99 102 0
-59 18 57 96 21 24 63 0
-59 18 57 96 21 24 102 0
-59 18 57 96 21 63 102 0
-59 18 57 96 99 24 63 0
-59 18 57 96 99 24 102 0
-59 18 57 96 99 63 102 0
-59 18 57 96 24 63 102 0
-59 18 57 21 99 24 63 0
-59 18 57 21 99 24 102 0
-59 18 57 21 99 63 102 0
-59 18 57 21 24 63 102 0
-59 18 57 99 24 63 102 0
-59 18 96 21 99 24 63 0
-59 18 96 21 99 24 102 0
-59 18 96 21 99 63 102 0
-59 18 96 21 24 63 102 0
-59 18 96 99 24 63 102 0
-59 18 21 99 24 63 102 0
-59 57 96 21 99 24 63 0
-59 57 96 21 99 24 102 0
-59 57 96 21 99 63 102 0
-59 57 96 21 24 63 102 0
-59 57 96 99 24 63 102 0
-59 57 21 99 24 63 102 0
-59 96 21 99 24 63 102 0
-60 -16 -55 -94 -19 -97 -22 -61 0
-60 -16 -55 -94 -19 -97 -22 -100 0
-60 -16 -55 -94 -19 -97 -61 -100 0
-60 -16 -55 -94 -19 -22 -61 -100 0
-60 -16 -55 -94 -97 -22 -61 -100 0
-60 -16 -55 -19 -97 -22 -61 -100 0
-60 -16 -94 -19 -97 -22 -61 -100 0
-60 -55 -94 -19 -97 -22 -61 -100 0
-60 16 55 94 0
-60 16 55 19 0
-60 16 55 97 0
-60 16 55 22 0
-60 16 55 61 0
-60 16 55 100 0
-60 16 94 19 0
-60 16 94 97 0
-60 16 94 22 0
-60 16 94 61 0
-60 16 94 100 0
-60 16 19 97 0
-60 16 19 22 0
-60 16 19 61 0
-60 16 19 100 0
-60 16 97 22 0
-60 16 97 61 0
-60 16 97 100 0
-60 16 22 61 0
-60 16 22 100 0
-60 16 61 100 0
-60 55 94 19 0
-60 55 94 97 0
-60 55 94 22 0
-60 55 94 61 0
-60 55 94 100 0
-60 55 19 97 0
-60 55 19 22 0
-60 55 19 61 0
-60 55 19 100 0
-60 55 97 22 0
-60 55 97 61 0
-60 55 97 100 0
-60 55 22 61 0
-60 55 22 100 0
-60 55 61 100 0
-60 94 19 97 0
-60 94 19 22 0
-60 94 19 61 0
-60 94 19 100 0
-60 94 97 22 0
-60 94 97 61 0
-60 94 97 100 0
-60 94 22 61 0
-60 94 22 100 0
-60 94 61 100 0
-60 19 97 22 0
-60 19 97 61 0
-60 19 97 100 0
-60 19 22 61 0
-60 19 22 100 0
-60 19 61 100 0
-60 97 22 61 0
-60 97 22 100 0
-60 97 61 100 0
-60 22 61 100 0
-61 -62 0
-61 -63 0
-62 -63 0
-61 -20 -59 0
-61 -20 -98 0
-61 -20 -23 0
-61 -20 -101 0
-61 -20 -26 0
-61 -20 -65 0
-61 -20 -104 0
-61 -59 -98 0
-61 -59 -23 0
-61 -59 -101 0
-61 -59 -26 0
-61 -59 -65 0
-61 -59 -104 0
-61 -98 -23 0
-61 -98 -101 0
-61 -98 -26 0
-61 -98 -65 0
-61 -98 -104 0
-61 -23 -101 0
-61 -23 -26 0
-61 -23 -65 0
-61 -23 -104 0
-61 -101 -26 0
-61 -101 -65 0
-61 -101 -104 0
-61 -26 -65 0
-61 -26 -104 0
-61 -65 -104 0
-61 20 59 98 23 101 26 65 104 0
-62 -21 -60 -99 -24 0
-62 -21 -60 -99 -102 0
-62 -21 -60 -99 -27 0
-62 -21 -60 -99 -66 0
-62 -21 -60 -99 -105 0
-62 -21 -60 -24 -102 0
-62 -21 -60 -24 -27 0
-62 -21 -60 -24 -66 0
-62 -21 -60 -24 -105 0
-62 -21 -60 -102 -27 0
-62 -21 -60 -102 -66 0
-62 -21 -60 -102 -105 0
-62 -21 -60 -27 -66 0
-62 -21 -60 -27 -105 0
-62 -21 -60 -66 -105 0
-62 -21 -99 -24 -102 0
-62 -21 -99 -24 -27 0
-62 -21 -99 -24 -66 0
-62 -21 -99 -24 -105 0
-62 -21 -99 -102 -27 0
-62 -21 -99 -102 -66 0
-62 -21 -99 -102 -105 0
-62 -21 -99 -27 -66 0
-62 -21 -99 -27 -105 0
-62 -21 -99 -66 -105 0
-62 -21 -24 -102 -27 0
-62 -21 -24 -102 -66 0
-62 -21 -24 -102 -105 0
-62 -21 -24 -27 -66 0
-62 -21 -24 -27 -105 0
-62 -21 -24 -66 -105 0
-62 -21 -102 -27 -66 0
-62 -21 -102 -27 -105 0
-62 -21 -102 -66 -105 0
-62 -21 -27 -66 -105 0
-62 -60 -99 -24 -102 0
-62 -60 -99 -24 -27 0
-62 -60 -99 -24 -66 0
-62 -60 -99 -24 -105 0
-62 -60 -99 -102 -27 0
-62 -60 -99 -102 -66 0
-62 -60 -99 -102 -105 0
-62 -60 -99 -27 -66 0
-62 -60 -99 -27 -105 0
-62 -60 -99 -66 -105 0
-62 -60 -24 -102 -27 0
-62 -60 -24 -102 -66 0
-62 -60 -24 -102 -105 0
-62 -60 -24 -27 -66 0
-62 -60 -24 -27 -105 0
-62 -60 -24 -66 -105 0
-62 -60 -102 -27 -66 0
-62 -60 -102 -27 -105 0
-62 -60 -102 -66 -105 0
-62 -60 -27 -66 -105 0
-62 -99 -24 -102 -27 0
-62 -99 -24 -102 -66 0
-62 -99 -24 -102 -105 0
-62 -99 -24 -27 -66 0
-62 -99 -24 -27 -105 0
-62 -99 -24 -66 -105 0
-62 -99 -102 -27 -66 0
-62 -99 -102 -27 -105 0
-62 -99 -102 -66 -105 0
-62 -99 -27 -66 -105 0
-62 -24 -102 -27 -66 0
-62 -24 -102 -27 -105 0
-62 -24 -102 -66 -105 0
-62 -24 -27 -66 -105 0
-62 -102 -27 -66 -105 0
-62 21 60 99 24 102 27 0
-62 21 60 99 24 102 66 0
-62 21 60 99 24 102 105 0
-62 21 60 99 24 27 66 0
-62 21 60 99 24 27 105 0
-62 21 60 99 24 66 105 0
-62 21 60 99 102 27 66 0
-62 21 60 99 102 27 105 0
-62 21 60 99 102 66 105 0
-62 21 60 99 27 66 105 0
-62 21 60 24 102 27 66 0
-62 21 60 24 102 27 105 0
-62 21 60 24 102 66 105 0
-62 21 60 24 27 66 105 0
-62 21 60 102 27 66 105 0
-62 21 99 24 102 27 66 0
-62 21 99 24 102 27 105 0
-62 21 99 24 102 66 105 0
-62 21 99 24 27 66 105 0
-62 21 99 102 27 66 105 0
-62 21 24 102 27 66 105 0
-62 60 99 24 102 27 66 0
-62 60 99 24 102 27 105 0
-62 60 99 24 102 66 105 0
-62 60 99 24 27 66 105 0
-62 60 99 102 27 66 105 0
-62 60 24 102 27 66 105 0
-62 99 24 102 27 66 105 0
-63 -19 -58 -97 -22 -100 -25 -64 0
-63 -19 -58 -97 -22 -100 -25 -103 0
-63 -19 -58 -97 -22 -100 -64 -103 0
-63 -19 -58 -97 -22 -25 -64 -103 0
-63 -19 -58 -97 -100 -25 -64 -103 0
-63 -19 -58 -22 -100 -25 -64 -103 0
-63 -19 -97 -22 -100 -25 -64 -103 0
-63 -58 -97 -22 -100 -25 -64 -103 0
-63 19 58 97 0
-63 19 58 22 0
-63 19 58 100 0
-63 19 58 25 0
-63 19 58 64 0
-63 19 58 103 0
-63 19 97 22 0
-63 19 97 100 0
-63 19 97 25 0
-63 19 97 64 0
-63 19 97 103 0
-63 19 22 100 0
-63 19 22 25 0
-63 19 22 64 0
-63 19 22 103 0
-63 19 100 25 0
-63 19 100 64 0
-63 19 100 103 0
-63 19 25 64 0
-63 19 25 103 0
-63 19 64 103 0
-63 58 97 22 0
-63 58 97 100 0
-63 58 97 25 0
-63 58 97 64 0
-63 58 97 103 0
-63 58 22 100 0
-63 58 22 25 0
-63 58 22 64 0
-63 58 22 103 0
-63 58 100 25 0
-63 58 100 64 0
-63 58 100 103 0
-63 58 25 64 0
-63 58 25 103 0
-63 58 64 103 0
-63 97 22 100 0
-63 97 22 25 0
-63 97 22 64 0
-63 97 22 103 0
-63 97 100 25 0
-63 97 100 64 0
-63 97 100 103 0
-63 97 25 64 0
-63 97 25 103 0
-63 97 64 103 0
-63 22 100 25 0
-63 22 100 64 0
-63 22 100 103 0
-63 22 25 64 0
-63 22 25 103 0
-63 22 64 103 0
-63 100 25 64 0
-63 100 25 103 0
-63 100 64 103 0
-63 25 64 103 0
-64 -65 0
-64 -66 0
-65 -66 0
-64 -23 -62 0
-64 -23 -101 0
-64 -23 -26 0
-64 -23 -104 0
-64 -23 -29 0
-64 -23 -68 0
-64 -23 -107 0
-64 -62 -101 0
-64 -62 -26 0
-64 -62 -104 0
-64 -62 -29 0
-64 -62 -68 0
-64 -62 -107 0
-64 -101 -26 0
-64 -101 -104 0
-64 -101 -29 0
-64 -101 -68 0
-64 -101 -107 0
-64 -26 -104 0
-64 -26 -29 0
-64 -26 -68 0
-64 -26 -107 0
-64 -104 -29 0
-64 -104 -68 0
-64 -104 -107 0
-64 -29 -68 0
-64 -29 -107 0
-64 -68 -107 0
-64 23 62 101 26 104 29 68 107 0
-65 -24 -63 -102 -27 0
-65 -24 -63 -102 -105 0
-65 -24 -63 -102 -30 0
-65 -24 -63 -102 -69 0
-65 -24 -63 -102 -108 0
-65 -24 -63 -27 -105 0
-65 -24 -63 -27 -30 0
-65 -24 -63 -27 -69 0
-65 -24 -63 -27 -108 0
-65 -24 -63 -105 -30 0
-65 -24 -63 -105 -69 0
-65 -24 -63 -105 -108 0
-65 -24 -63 -30 -69 0
-65 -24 -63 -30 -108 0
-65 -24 -63 -69 -108 0
-65 -24 -102 -27 -105 0
-65 -24 -102 -27 -30 0
-65 -24 -102 -27 -69 0
-65 -24 -102 -27 -108 0
-65 -24 -102 -105 -30 0
-65 -24 -102 -105 -69 0
-65 -24 -102 -105 -108 0
-65 -24 -102 -30 -69 0
-65 -24 -102 -30 -108 0
-65 -24 -102 -69 -108 0
-65 -24 -27 -105 -30 0
-65 -24 -27 -105 -69 0
-65 -24 -27 -105 -108 0
-65 -24 -27 -30 -69 0
-65 -24 -27 -30 -108 0
-65 -24 -27 -69 -108 0
-65 -24 -105 -30 -69 0
-65 -24 -105 -30 -108 0
-65 -24 -105 -69 -108 0
-65 -24 -30 -69 -108 0
-65 -63 -102 -27 -105 0
-65 -63 -102 -27 -30 0
-65 -63 -102 -27 -69 0
-65 -63 -102 -27 -108 0
-65 -63 -102 -105 -30 0
-65 -63 -102 -105 -69 0
-65 -63 -102 -105 -108 0
-65 -63 -102 -30 -69 0
-65 -63 -102 -30 -108 0
-65 -63 -102 -69 -108 0
-65 -63 -27 -105 -30 0
-65 -63 -27 -105 -69 0
-65 -63 -27 -105 -108 0
-65 -63 -27 -30 -69 0
-65 -63 -27 -30 -108 0
-65 -63 -27 -69 -108 0
-65 -63 -105 -30 -69 0
-65 -63 -105 -30 -108 0
-65 -63 -105 -69 -108 0
-65 -63 -30 -69 -108 0
-65 -102 -27 -105 -30 0
-65 -102 -27 -105 -69 0
-65 -102 -27 -105 -108 0
-65 -102 -27 -30 -69 0
-65 -102 -27 -30 -108 0
-65 -102 -27 -69 -108 0
-65 -102 -105 -30 -69 0
-65 -102 -105 -30 -108 0
-65 -102 -105 -69 -108 0
-65 -102 -30 -69 -108 0
-65 -27 -105 -30 -69 0
-65 -27 -105 -30 -108 0
-65 -27 -105 -69 -108 0
-65 -27 -30 -69 -108 0
-65 -105 -30 -69 -108 0
-65 24 63 102 27 105 30 0
-65 24 63 102 27 105 69 0
-65 24 63 102 27 105 108 0
-65 24 63 102 27 30 69 0
-65 24 63 102 27 30 108 0
-65 24 63 102 27 69 108 0
-65 24 63 102 105 30 69 0
-65 24 63 102 105 30 108 0
-65 24 63 102 105 69 108 0
-65 24 63 102 30 69 108 0
-65 24 63 27 105 30 69 0
-65 24 63 27 105 30 108 0
-65 24 63 27 105 69 108 0
-65 24 63 27 30 69 108 0
-65 24 63 105 30 69 108 0
-65 24 102 27 105 30 69 0
-65 24 102 27 105 30 108 0
-65 24 102 27 105 69 108 0
-65 24 102 27 30 69 108 0
-65 24 102 105 30 69 108 0
-65 24 27 105 30 69 108 0
-65 63 102 27 105 30 69 0
-65 63 102 27 105 30 108 0
-65 63 102 27 105 69 108 0
-65 63 102 27 30 69 108 0
-65 63 102 105 30 69 108 0
-65 63 27 105 30 69 108 0
-65 102 27 105 30 69 108 0
-66 -22 -61 -100 -25 -103 -28 -67 0
-66 -22 -61 -100 -25 -103 -28 -106 0
-66 -22 -61 -100 -25 -103 -67 -106 0
-66 -22 -61 -100 -25 -28 -67 -106 0
-66 -22 -61 -100 -103 -28 -67 -106 0
-66 -22 -61 -25 -103 -28 -67 -106 0
-66 -22 -100 -25 -103 -28 -67 -106 0
-66 -61 -100 -25 -103 -28 -67 -106 0
-66 22 61 100 0
-66 22 61 25 0
-66 22 61 103 0
-66 22 61 28 0
-66 22 61 67 0
-66 22 61 106 0
-66 22 100 25 0
-66 22 100 103 0
-66 22 100 28 0
-66 22 100 67 0
-66 22 100 106 0
-66 22 25 103 0
-66 22 25 28 0
-66 22 25 67 0
-66 22 25 106 0
-66 22 103 28 0
-66 22 103 67 0
-66 22 103 106 0
-66 22 28 67 0
-66 22 28 106 0
-66 22 67 106 0
-66 61 100 25 0
-66 61 100 103 0
-66 61 100 28 0
-66 61 100 67 0
-66 61 100 106 0
-66 61 25 103 0
-66 61 25 28 0
-66 61 25 67 0
-66 61 25 106 0
-66 61 103 28 0
-66 61 103 67 0
-66 61 103 106 0
-66 61 28 67 0
-66 61 28 106 0
-66 61 67 106 0
-66 100 25 103 0
-66 100 25 28 0
-66 100 25 67 0
-66 100 25 106 0
-66 100 103 28 0
-66 100 103 67 0
-66 100 103 106 0
-66 100 28 67 0
-66 100 28 106 0
-66 100 67 106 0
-66 25 103 28 0
-66 25 103 67 0
-66 25 103 106 0
-66 25 28 67 0
-66 25 28 106 0
-66 25 67 106 0
-66 103 28 67 0
-66 103 28 106 0
-66 103 67 106 0
-66 28 67 106 0
-67 -68 0
-67 -69 0
-68 -69 0
-67 -26 -65 0
-67 -26 -104 0
-67 -26 -29 0
-67 -26 -107 0
-67 -26 -32 0
-67 -26 -71 0
-67 -26 -110 0
-67 -65 -104 0
-67 -65 -29 0
-67 -65 -107 0
-67 -65 -32 0
-67 -65 -71 0
-67 -65 -110 0
-67 -104 -29 0
-67 -104 -107 0
-67 -104 -32 0
-67 -104 -71 0
-67 -104 -110 0
-67 -29 -107 0
-67 -29 -32 0
-67 -29 -71 0
-67 -29 -110 0
-67 -107 -32 0
-67 -107 -71 0
-67 -107 -110 0
-67 -32 -71 0
-67 -32 -110 0
-67 -71 -110 0
-67 26 65 104 29 107 32 71 110 0
-68 -27 -66 -105 -30 0
-68 -27 -66 -105 -108 0
-68 -27 -66 -105 -33 0
-68 -27 -66 -105 -72 0
-68 -27 -66 -105 -111 0
-68 -27 -66 -30 -108 0
-68 -27 -66 -30 -33 0
-68 -27 -66 -30 -72 0
-68 -27 -66 -30 -111 0
-68 -27 -66 -108 -33 0
-68 -27 -66 -108 -72 0
-68 -27 -66 -108 -111 0
-68 -27 -66 -33 -72 0
-68 -27 -66 -33 -111 0
-68 -27 -66 -72 -111 0
-68 -27 -105 -30 -108 0
-68 -27 -105 -30 -33 0
-68 -27 -105 -30 -72 0
-68 -27 -105 -30 -111 0
-68 -27 -105 -108 -33 0
-68 -27 -105 -108 -72 0
-68 -27 -105 -108 -111 0
-68 -27 -105 -33 -72 0
-68 -27 -105 -33 -111 0
-68 -27 -105 -72 -111 0
-68 -27 -30 -108 -33 0
-68 -27 -30 -108 -72 0
-68 -27 -30 -108 -111 0
-68 -27 -30 -33 -72 0
-68 -27 -30 -33 -111 0
-68 -27 -30 -72 -111 0
-68 -27 -108 -33 -72 0
-68 -27 -108 -33 -111 0
-68 -27 -108 -72 -111 0
-68 -27 -33 -72 -111 0
-68 -66 -105 -30 -108 0
-68 -66 -105 -30 -33 0
-68 -66 -105 -30 -72 0
-68 -66 -105 -30 -111 0
-68 -66 -105 -108 -33 0
-68 -66 -105 -108 -72 0
-68 -66 -105 -108 -111 0
-68 -66 -105 -33 -72 0
-68 -66 -105 -33 -111 0
-68 -66 -105 -72 -111 0
-68 -66 -30 -108 -33 0
-68 -66 -30 -108 -72 0
-68 -66 -30 -108 -111 0
-68 -66 -30 -33 -72 0
-68 -66 -30 -33 -111 0
-68 -66 -30 -72 -111 0
-68 -66 -108 -33 -72 0
-68 -66 -108 -33 -111 0
-68 -66 -108 -72 -111 0
-68 -66 -33 -72 -111 0
-68 -105 -30 -108 -33 0
-68 -105 -30 -108 -72 0
-68 -105 -30 -108 -111 0
-68 -105 -30 -33 -72 0
-68 -105 -30 -33 -111 0
-68 -105 -30 -72 -111 0
-68 -105 -108 -33 -72 0
-68 -105 -108 -33 -111 0
-68 -105 -108 -72 -111 0
-68 -105 -33 -72 -111 0
-68 -30 -108 -33 -72 0
-68 -30 -108 -33 -111 0
-68 -30 -108 -72 -111 0
-68 -30 -33 -72 -111 0
-68 -108 -33 -72 -111 0
-68 27 66 105 30 108 33 0
-68 27 66 105 30 108 72 0
-68 27 66 105 30 108 111 0
-68 27 66 105 30 33 72 0
-68 27 66 105 30 33 111 0
-68 27 66 105 30 72 111 0
-68 27 66 105 108 33 72 0
-68 27 66 105 108 33 111 0
-68 27 66 105 108 72 111 0
-68 27 66 105 33 72 111 0
-68 27 66 30 108 33 72 0
-68 27 66 30 108 33 111 0
-68 27 66 30 108 72 111 0
-68 27 66 30 33 72 111 0
-68 27 66 108 33 72 111 0
-68 27 105 30 108 33 72 0
-68 27 105 30 108 33 111 0
-68 27 105 30 108 72 111 0
-68 27 105 30 33 72 111 0
-68 27 105 108 33 72 111 0
-68 27 30 108 33 72 111 0
-68 66 105 30 108 33 72 0
-68 66 105 30 108 33 111 0
-68 66 105 30 108 72 111 0
-68 66 105 30 33 72 111 0
-68 66 105 108 33 72 111 0
-68 66 30 108 33 72 111 0
-68 105 30 108 33 72 111 0
-69 -25 -64 -103 -28 -106 -31 -70 0
-69 -25 -64 -103 -28 -106 -31 -109 0
-69 -25 -64 -103 -28 -106 -70 -109 0
-69 -25 -64 -103 -28 -31 -70 -109 0
-69 -25 -64 -103 -106 -31 -70 -109 0
-69 -25 -64 -28 -106 -31 -70 -109 0
-69 -25 -103 -28 -106 -31 -70 -109 0
-69 -64 -103 -28 -106 -31 -70 -109 0
-69 25 64 103 0
-69 25 64 28 0
-69 25 64 106 0
-69 25 64 31 0
-69 25 64 70 0
-69 25 64 109 0
-69 25 103 28 0
-69 25 103 106 0
-69 25 103 31 0
-69 25 103 70 0
-69 25 103 109 0
-69 25 28 106 0
-69 25 28 31 0
-69 25 28 70 0
-69 25 28 109 0
-69 25 106 31 0
-69 25 106 70 0
-69 25 106 109 0
-69 25 31 70 0
-69 25 31 109 0
-69 25 70 109 0
-69 64 103 28 0
-69 64 103 106 0
-69 64 103 31 0
-69 64 103 70 0
-69 64 103 109 0
-69 64 28 106 0
-69 64 28 31 0
-69 64 28 70 0
-69 64 28 109 0
-69 64 106 31 0
-69 64 106 70 0
-69 64 106 109 0
-69 64 31 70 0
-69 64 31 109 0
-69 64 70 109 0
-69 103 28 106 0
-69 103 28 31 0
-69 103 28 70 0
-69 103 28 109 0
-69 103 106 31 0
-69 103 106 70 0
-69 103 106 109 0
-69 103 31 70 0
-69 103 31 109 0
-69 103 70 109 0
-69 28 106 31 0
-69 28 106 70 0
-69 28 106 109 0
-69 28 31 70 0
-69 28 31 109 0
-69 28 70 109 0
-69 106 31 70 0
-69 106 31 109 0
-69 106 70 109 0
-69 31 70 109 0
-70 -71 0
-70 -72 0
-71 -72 0
-70 -29 -68 0
-70 -29 -107 0
-70 -29 -32 0
-70 -29 -110 0
-70 -29 -35 0
-70 -29 -74 0
-70 -29 -113 0
-70 -68 -107 0
-70 -68 -32 0
-70 -68 -110 0
-70 -68 -35 0
-70 -68 -74 0
-70 -68 -113 0
-70 -107 -32 0
-70 -107 -110 0
-70 -107 -35 0
-70 -107 -74 0
-70 -107 -113 0
-70 -32 -110 0
-70 -32 -35 0
-70 -32 -74 0
-70 -32 -113 0
-70 -110 -35 0
-70 -110 -74 0
-70 -110 -113 0
-70 -35 -74 0
-70 -35 -113 0
-70 -74 -113 0
-70 29 68 107 32 110 35 74 113 0
-71 -30 -69 -108 -33 0
-71 -30 -69 -108 -111 0
-71 -30 -69 -108 -36 0
-71 -30 -69 -108 -75 0
-71 -30 -69 -108 -114 0
-71 -30 -69 -33 -111 0
-71 -30 -69 -33 -36 0
-71 -30 -69 -33 -75 0
-71 -30 -69 -33 -114 0
-71 -30 -69 -111 -36 0
-71 -30 -69 -111 -75 0
-71 -30 -69 -111 -114 0
-71 -30 -69 -36 -75 0
-71 -30 -69 -36 -114 0
-71 -30 -69 -75 -114 0
-71 -30 -108 -33 -111 0
-71 -30 -108 -33 -36 0
-71 -30 -108 -33 -75 0
-71 -30 -108 -33 -114 0
-71 -30 -108 -111 -36 0
-71 -30 -108 -111 -75 0
-71 -30 -108 -111 -114 0
-71 -30 -108 -36 -75 0
-71 -30 -108 -36 -114 0
-71 -30 -108 -75 -114 0
-71 -30 -33 -111 -36 0
-71 -30 -33 -111 -75 0
-71 -30 -33 -111 -114 0
-71 -30 -33 -36 -75 0
-71 -30 -33 -36 -114 0
-71 -30 -33 -75 -114 0
-71 -30 -111 -36 -75 0
-71 -30 -111 -36 -114 0
-71 -30 -111 -75 -114 0
-71 -30 -36 -75 -114 0
-71 -69 -108 -33 -111 0
-71 -69 -108 -33 -36 0
-71 -69 -108 -33 -75 0
-71 -69 -108 -33 -114 0
-71 -69 -108 -111 -36 0
-71 -69 -108 -111 -75 0
-71 -69 -108 -111 -114 0
-71 -69 -108 -36 -75 0
-71 -69 -108 -36 -114 0
-71 -69 -108 -75 -114 0
-71 -69 -33 -111 -36 0
-71 -69 -33 -111 -75 0
-71 -69 -33 -111 -114 0
-71 -69 -33 -36 -75 0
-71 -69 -33 -36 -114 0
-71 -69 -33 -75 -114 0
-71 -69 -111 -36 -75 0
-71 -69 -111 -36 -114 0
-71 -69 -111 -75 -114 0
-71 -69 -36 -75 -114 0
-71 -108 -33 -111 -36 0
-71 -108 -33 -111 -75 0
-71 -108 -33 -111 -114 0
-71 -108 -33 -36 -75 0
-71 -108 -33 -36 -114 0
-71 -108 -33 -75 -114 0
-71 -108 -111 -36 -75 0
-71 -108 -111 -36 -114 0
-71 -108 -111 -75 -114 0
-71 -108 -36 -75 -114 0
-71 -33 -111 -36 -75 0
-71 -33 -111 -36 -114 0
-71 -33 -111 -75 -114 0
-71 -33 -36 -75 -114 0
-71 -111 -36 -75 -114 0
-71 30 69 108 33 111 36 0
-71 30 69 108 33 111 75 0
-71 30 69 108 33 111 114 0
-71 30 69 108 33 36 75 0
-71 30 69 108 33 36 114 0
-71 30 69 108 33 75 114 0
-71 30 69 108 111 36 75 0
-71 30 69 108 111 36 114 0
-71 30 69 108 111 75 114 0
-71 30 69 108 36 75 114 0
-71 30 69 33 111 36 75 0
-71 30 69 33 111 36 114 0
-71 30 69 33 111 75 114 0
-71 30 69 33 36 75 114 0
-71 30 69 111 36 75 114 0
-71 30 108 33 111 36 75 0
-71 30 108 33 111 36 114 0
-71 30 108 33 111 75 114 0
-71 30 108 33 36 75 114 0
-71 30 108 111 36 75 114 0
-71 30 33 111 36 75 114 0
-71 69 108 33 111 36 75 0
-71 69 108 33 111 36 114 0
-71 69 108 33 111 75 114 0
-71 69 108 33 36 75 114 0
-71 69 108 111 36 75 114 0
-71 69 33 111 36 75 114 0
-71 108 33 111 36 75 114 0
-72 -28 -67 -106 -31 -109 -34 -73 0
-72 -28 -67 -106 -31 -109 -34 -112 0
-72 -28 -67 -106 -31 -109 -73 -112 0
-72 -28 -67 -106 -31 -34 -73 -112 0
-72 -28 -67 -106 -109 -34 -73 -112 0
-72 -28 -67 -31 -109 -34 -73 -112 0
-72 -28 -106 -31 -109 -34 -73 -112 0
-72 -67 -106 -31 -109 -34 -73 -112 0
-72 28 67 106 0
-72 28 67 31 0
-72 28 67 109 0
-72 28 67 34 0
-72 28 67 73 0
-72 28 67 112 0
-72 28 106 31 0
-72 28 106 109 0
-72 28 106 34 0
-72 28 106 73 0
-72 28 106 112 0
-72 28 31 109 0
-72 28 31 34 0
-72 28 31 73 0
-72 28 31 112 0
-72 28 109 34 0
-72 28 109 73 0
-72 28 109 112 0
-72 28 34 73 0
-72 28 34 112 0
-72 28 73 112 0
-72 67 106 31 0
-72 67 106 109 0
-72 67 106 34 0
-72 67 106 73 0
-72 67 106 112 0
-72 67 31 109 0
-72 67 31 34 0
-72 67 31 73 0
-72 67 31 112 0
-72 67 109 34 0
-72 67 109 73 0
-72 67 109 112 0
-72 67 34 73 0
-72 67 34 112 0
-72 67 73 112 0
-72 106 31 109 0
-72 106 31 34 0
-72 106 31 73 0
-72 106 31 112 0
-72 106 109 34 0
-72 106 109 73 0
-72 106 109 112 0
-72 106 34 73 0
-72 106 34 112 0
-72 106 73 112 0
-72 31 109 34 0
-72 31 109 73 0
-72 31 109 112 0
-72 31 34 73 0
-72 31 34 112 0
-72 31 73 112 0
-72 109 34 73 0
-72 109 34 112 0
-72 109 73 112 0
-72 34 73 112 0
-73 -74 0
-73 -75 0
-74 -75 0
-73 -32 -71 0
-73 -32 -110 0
-73 -32 -35 0
-73 -32 -113 0
-73 -32 -38 0
-73 -32 -77 0
-73 -32 -116 0
-73 -71 -110 0
-73 -71 -35 0
-73 -71 -113 0
-73 -71 -38 0
-73 -71 -77 0
-73 -71 -116 0
-73 -110 -35 0
-73 -110 -113 0
-73 -110 -38 0
-73 -110 -77 0
-73 -110 -116 0
-73 -35 -113 0
-73 -35 -38 0
-73 -35 -77 0
-73 -35 -116 0
-73 -113 -38 0
-73 -113 -77 0
-73 -113 -116 0
-73 -38 -77 0
-73 -38 -116 0
-73 -77 -116 0
-73 32 71 110 35 113 38 77 116 0
-74 -33 -72 -111 -36 0
-74 -33 -72 -111 -114 0
-74 -33 -72 -111 -39 0
-74 -33 -72 -111 -78 0
-74 -33 -72 -111 -117 0
-74 -33 -72 -36 -114 0
-74 -33 -72 -36 -39 0
-74 -33 -72 -36 -78 0
-74 -33 -72 -36 -117 0
-74 -33 -72 -114 -39 0
-74 -33 -72 -114 -78 0
-74 -33 -72 -114 -117 0
-74 -33 -72 -39 -78 0
-74 -33 -72 -39 -117 0
-74 -33 -72 -78 -117 0
-74 -33 -111 -36 -114 0
-74 -33 -111 -36 -39 0
-74 -33 -111 -36 -78 0
-74 -33 -111 -36 -117 0
-74 -33 -111 -114 -39 0
-74 -33 -111 -114 -78 0
-74 -33 -111 -114 -117 0
-74 -33 -111 -39 -78 0
-74 -33 -111 -39 -117 0
-74 -33 -111 -78 -117 0
-74 -33 -36 -114 -39 0
-74 -33 -36 -114 -78 0
-74 -33 -36 -114 -117 0
-74 -33 -36 -39 -78 0
-74 -33 -36 -39 -117 0
-74 -33 -36 -78 -117 0
-74 -33 -114 -39 -78 0
-74 -33 -114 -39 -117 0
-74 -33 -114 -78 -117 0
-74 -33 -39 -78 -117 0
-74 -72 -111 -36 -114 0
-74 -72 -111 -36 -39 0
-74 -72 -111 -36 -78 0
-74 -72 -111 -36 -117 0
-74 -72 -111 -114 -39 0
-74 -72 -111 -114 -78 0
-74 -72 -111 -114 -117 0
-74 -72 -111 -39 -78 0
-74 -72 -111 -39 -117 0
-74 -72 -111 -78 -117 0
-74 -72 -36 -114 -39 0
-74 -72 -36 -114 -78 0
-74 -72 -36 -114 -117 0
-74 -72 -36 -39 -78 0
-74 -72 -36 -39 -117 0
-74 -72 -36 -78 -117 0
-74 -72 -114 -39 -78 0
-74 -72 -114 -39 -117 0
-74 -72 -114 -78 -117 0
-74 -72 -39 -78 -117 0
-74 -111 -36 -114 -39 0
-74 -111 -36 -114 -78 0
-74 -111 -36 -114 -117 0
-74 -111 -36 -39 -78 0
-74 -111 -36 -39 -117 0
-74 -111 -36 -78 -117 0
-74 -111 -114 -39 -78 0
-74 -111 -114 -39 -117 0
-74 -111 -114 -78 -117 0
-74 -111 -39 -78 -117 0
-74 -36 -114 -39 -78 0
-74 -36 -114 -39 -117 0
-74 -36 -114 -78 -117 0
-74 -36 -39 -78 -117 0
-74 -114 -39 -78 -117 0
-74 33 72 111 36 114 39 0
-74 33 72 111 36 114 78 0
-74 33 72 111 36 114 117 0
-74 33 72 111 36 39 78 0
-74 33 72 111 36 39 117 0
-74 33 72 111 36 78 117 0
-74 33 72 111 114 39 78 0
-74 33 72 111 114 39 117 0
-74 33 72 111 114 78 117 0
-74 33 72 111 39 78 117 0
-74 33 72 36 114 39 78 0
-74 33 72 36 114 39 117 0
-74 33 72 36 114 78 117 0
-74 33 72 36 39 78 117 0
-74 33 72 114 39 78 117 0
-74 33 111 36 114 39 78 0
-74 33 111 36 114 39 117 0
-74 33 111 36 114 78 117 0
-74 33 111 36 39 78 117 0
-74 33 111 114 39 78 117 0
-74 33 36 114 39 78 117 0
-74 72 111 36 114 39 78 0
-74 72 111 36 114 39 117 0
-74 72 111 36 114 78 117 0
-74 72 111 36 39 78 117 0
-74 72 111 114 39 78 117 0
-74 72 36 114 39 78 117 0
-74 111 36 114 39 78 117 0
-75 -31 -70 -109 -34 -112 -37 -76 0
-75 -31 -70 -109 -34 -112 -37 -115 0
-75 -31 -70 -109 -34 -112 -76 -115 0
-75 -31 -70 -109 -34 -37 -76 -115 0
-75 -31 -70 -109 -112 -37 -76 -115 0
-75 -31 -70 -34 -112 -37 -76 -115 0
-75 -31 -109 -34 -112 -37 -76 -115 0
-75 -70 -109 -34 -112 -37 -76 -115 0
-75 31 70 109 0
-75 31 70 34 0
-75 31 70 112 0
-75 31 70 37 0
-75 31 70 76 0
-75 31 70 115 0
-75 31 109 34 0
-75 31 109 112 0
-75 31 109 37 0
-75 31 109 76 0
-75 31 109 115 0
-75 31 34 112 0
-75 31 34 37 0
-75 31 34 76 0
-75 31 34 115 0
-75 31 112 37 0
-75 31 112 76 0
-75 31 112 115 0
-75 31 37 76 0
-75 31 37 115 0
-75 31 76 115 0
-75 70 109 34 0
-75 70 109 112 0
-75 70 109 37 0
-75 70 109 76 0
-75 70 109 115 0
-75 70 34 112 0
-75 70 34 37 0
-75 70 34 76 0
-75 70 34 115 0
-75 70 112 37 0
-75 70 112 76 0
-75 70 112 115 0
-75 70 37 76 0
-75 70 37 115 0
-75 70 76 115 0
-75 109 34 112 0
-75 109 34 37 0
-75 109 34 76 0
-75 109 34 115 0
-75 109 112 37 0
-75 109 112 76 0
-75 109 112 115 0
-75 109 37 76 0
-75 109 37 115 0
-75 109 76 115 0
-75 34 112 37 0
-75 34 112 76 0
-75 34 112 115 0
-75 34 37 76 0
-75 34 37 115 0
-75 34 76 115 0
-75 112 37 76 0
-75 112 37 115 0
-75 112 76 115 0
-75 37 76 115 0
-76 -77 0
-76 -78 0
-77 -78 0
-79 -80 0
-79 -81 0
-80 -81 0
-82 -83 0
-82 -84 0
-83 -84 0
-82 -41 -80 0
-82 -41 -119 0
-82 -41 -44 0
-82 -41 -122 0
-82 -41 -47 0
-82 -41 -86 0
-82 -41 -125 0
-82 -80 -119 0
-82 -80 -44 0
-82 -80 -122 0
-82 -80 -47 0
-82 -80 -86 0
-82 -80 -125 0
-82 -119 -44 0
-82 -119 -122 0
-82 -119 -47 0
-82 -119 -86 0
-82 -119 -125 0
-82 -44 -122 0
-82 -44 -47 0
-82 -44 -86 0
-82 -44 -125 0
-82 -122 -47 0
-82 -122 -86 0
-82 -122 -125 0
-82 -47 -86 0
-82 -47 -125 0
-82 -86 -125 0
-82 41 80 119 44 122 47 86 125 0
-83 -42 -81 -120 -45 0
-83 -42 -81 -120 -123 0
-83 -42 -81 -120 -48 0
-83 -42 -81 -120 -87 0
-83 -42 -81 -120 -126 0
-83 -42 -81 -45 -123 0
-83 -42 -81 -45 -48 0
-83 -42 -81 -45 -87 0
-83 -42 -81 -45 -126 0
-83 -42 -81 -123 -48 0
-83 -42 -81 -123 -87 0
-83 -42 -81 -123 -126 0
-83 -42 -81 -48 -87 0
-83 -42 -81 -48 -126 0
-83 -42 -81 -87 -126 0
-83 -42 -120 -45 -123 0
-83 -42 -120 -45 -48 0
-83 -42 -120 -45 -87 0
-83 -42 -120 -45 -126 0
-83 -42 -120 -123 -48 0
-83 -42 -120 -123 -87 0
-83 -42 -120 -123 -126 0
-83 -42 -120 -48 -87 0
-83 -42 -120 -48 -126 0
-83 -42 -120 -87 -126 0
-83 -42 -45 -123 -48 0
-83 -42 -45 -123 -87 0
-83 -42 -45 -123 -126 0
-83 -42 -45 -48 -87 0
-83 -42 -45 -48 -126 0
-83 -42 -45 -87 -126 0
-83 -42 -123 -48 -87 0
-83 -42 -123 -48 -126 0
-83 -42 -123 -87 -126 0
-83 -42 -48 -87 -126 0
-83 -81 -120 -45 -123 0
-83 -81 -120 -45 -48 0
-83 -81 -120 -45 -87 0
-83 -81 -120 -45 -126 0
-83 -81 -120 -123 -48 0
-83 -81 -120 -123 -87 0
-83 -81 -120 -123 -126 0
-83 -81 -120 -48 -87 0
-83 -81 -120 -48 -126 0
-83 -81 -120 -87 -126 0
-83 -81 -45 -123 -48 0
-83 -81 -45 -123 -87 0
-83 -81 -45 -123 -126 0
-83 -81 -45 -48 -87 0
-83 -81 -45 -48 -126 0
-83 -81 -45 -87 -126 0
-83 -81 -123 -48 -87 0
-83 -81 -123 -48 -126 0
-83 -81 -123 -87 -126 0
-83 -81 -48 -87 -126 0
-83 -120 -45 -123 -48 0
-83 -120 -45 -123 -87 0
-83 -120 -45 -123 -126 0
-83 -120 -45 -48 -87 0
-83 -120 -45 -48 -126 0
-83 -120 -45 -87 -126 0
-83 -120 -123 -48 -87 0
-83 -120 -123 -48 -126 0
-83 -120 -123 -87 -126 0
-83 -120 -48 -87 -126 0
-83 -45 -123 -48 -87 0
-83 -45 -123 -48 -126 0
-83 -45 -123 -87 -126 0
-83 -45 -48 -87 -126 0
-83 -123 -48 -87 -126 0
-83 42 81 120 45 123 48 0
-83 42 81 120 45 123 87 0
-83 42 81 120 45 123 126 0
-83 42 81 120 45 48 87 0
-83 42 81 120 45 48 126 0
-83 42 81 120 45 87 126 0
-83 42 81 120 123 48 87 0
-83 42 81 120 123 48 126 0
-83 42 81 120 123 87 126 0
-83 42 81 120 48 87 126 0
-83 42 81 45 123 48 87 0
-83 42 81 45 123 48 126 0
-83 42 81 45 123 87 126 0
-83 42 81 45 48 87 126 0
-83 42 81 123 48 87 126 0
-83 42 120 45 123 48 87 0
-83 42 120 45 123 48 126 0
-83 42 120 45 123 87 126 0
-83 42 120 45 48 87 126 0
-83 42 120 123 48 87 126 0
-83 42 45 123 48 87 126 0
-83 81 120 45 123 48 87 0
-83 81 120 45 123 48 126 0
-83 81 120 45 123 87 126 0
-83 81 120 45 48 87 126 0
-83 81 120 123 48 87 126 0
-83 81 45 123 48 87 126 0
-83 120 45 123 48 87 126 0
-84 -40 -79 -118 -43 -121 -46 -85 0
-84 -40 -79 -118 -43 -121 -46 -124 0
-84 -40 -79 -118 -43 -121 -85 -124 0
-84 -40 -79 -118 -43 -46 -85 -124 0
-84 -40 -79 -118 -121 -46 -85 -124 0
-84 -40 -79 -43 -121 -46 -85 -124 0
-84 -40 -118 -43 -121 -46 -85 -124 0
-84 -79 -118 -43 -121 -46 -85 -124 0
-84 40 79 118 0
-84 40 79 43 0
-84 40 79 121 0
-84 40 79 46 0
-84 40 79 85 0
-84 40 79 124 0
-84 40 118 43 0
-84 40 118 121 0
-84 40 118 46 0
-84 40 118 85 0
-84 40 118 124 0
-84 40 43 121 0
-84 40 43 46 0
-84 40 43 85 0
-84 40 43 124 0
-84 40 121 46 0
-84 40 121 85 0
-84 40 121 124 0
-84 40 46 85 0
-84 40 46 124 0
-84 40 85 124 0
-84 79 118 43 0
-84 79 118 121 0
-84 79 118 46 0
-84 79 118 85 0
-84 79 118 124 0
-84 79 43 121 0
-84 79 43 46 0
-84 79 43 85 0
-84 79 43 124 0
-84 79 121 46 0
-84 79 121 85 0
-84 79 121 124 0
-84 79 46 85 0
-84 79 46 124 0
-84 79 85 124 0
-84 118 43 121 0
-84 118 43 46 0
-84 118 43 85 0
-84 118 43 124 0
-84 118 121 46 0
-84 118 121 85 0
-84 118 121 124 0
-84 118 46 85 0
-84 118 46 124 0
-84 118 85 124 0
-84 43 121 46 0
-84 43 121 85 0
-84 43 121 124 0
-84 43 46 85 0
-84 43 46 124 0
-84 43 85 124 0
-84 121 46 85 0
-84 121 46 124 0
-84 121 85 124 0
-84 46 85 124 0
-85 -86 0
-85 -87 0
-86 -87 0
-85 -44 -83 0
-85 -44 -122 0
-85 -44 -47 0
-85 -44 -125 0
-85 -44 -50 0
-85 -44 -89 0
-85 -44 -128 0
-85 -83 -122 0
-85 -83 -47 0
-85 -83 -125 0
-85 -83 -50 0
-85 -83 -89 0
-85 -83 -128 0
-85 -122 -47 0
-85 -122 -125 0
-85 -122 -50 0
-85 -122 -89 0
-85 -122 -128 0
-85 -47 -125 0
-85 -47 -50 0
-85 -47 -89 0
-85 -47 -128 0
-85 -125 -50 0
-85 -125 -89 0
-85 -125 -128 0
-85 -50 -89 0
-85 -50 -128 0
-85 -89 -128 0
-85 44 83 122 47 125 50 89 128 0
-86 -45 -84 -123 -48 0
-86 -45 -84 -123 -126 0
-86 -45 -84 -123 -51 0
-86 -45 -84 -123 -90 0
-86 -45 -84 -123 -129 0
-86 -45 -84 -48 -126 0
-86 -45 -84 -48 -51 0
-86 -45 -84 -48 -90 0
-86 -45 -84 -48 -129 0
-86 -45 -84 -126 -51 0
-86 -45 -84 -126 -90 0
-86 -45 -84 -126 -129 0
-86 -45 -84 -51 -90 0
-86 -45 -84 -51 -129 0
-86 -45 -84 -90 -129 0
-86 -45 -123 -48 -126 0
-86 -45 -123 -48 -51 0
-86 -45 -123 -48 -90 0
-86 -45 -123 -48 -129 0
-86 -45 -123 -126 -51 0
-86 -45 -123 -126 -90 0
-86 -45 -123 -126 -129 0
-86 -45 -123 -51 -90 0
-86 -45 -123 -51 -129 0
-86 -45 -123 -90 -129 0
-86 -45 -48 -126 -51 0
-86 -45 -48 -126 -90 0
-86 -45 -48 -126 -129 0
-86 -45 -48 -51 -90 0
-86 -45 -48 -51 -129 0
-86 -45 -48 -90 -129 0
-86 -45 -126 -51 -90 0
-86 -45 -126 -51 -129 0
-86 -45 -126 -90 -129 0
-86 -45 -51 -90 -129 0
-86 -84 -123 -48 -126 0
-86 -84 -123 -48 -51 0
-86 -84 -123 -48 -90 0
-86 -84 -123 -48 -129 0
-86 -84 -123 -126 -51 0
-86 -84 -123 -126 -90 0
-86 -84 -123 -126 -129 0
-86 -84 -123 -51 -90 0
-86 -84 -123 -51 -129 0
-86 -84 -123 -90 -129 0
-86 -84 -48 -126 -51 0
-86 -84 -48 -126 -90 0
-86 -84 -48 -126 -129 0
-86 -84 -48 -51 -90 0
-86 -84 -48 -51 -129 0
-86 -84 -48 -90 -129 0
-86 -84 -126 -51 -90 0
-86 -84 -126 -51 -129 0
-86 -84 -126 -90 -129 0
-86 -84 -51 -90 -129 0
-86 -123 -48 -126 -51 0
-86 -123 -48 -126 -90 0
-86 -123 -48 -126 -129 0
-86 -123 -48 -51 -90 0
-86 -123 -48 -51 -129 0
-86 -123 -48 -90 -129 0
-86 -123 -126 -51 -90 0
-86 -123 -126 -51 -129 0
-86 -123 -126 -90 -129 0
-86 -123 -51 -90 -129 0
-86 -48 -126 -51 -90 0
-86 -48 -126 -51 -129 0
-86 -48 -126 -90 -129 0
-86 -48 -51 -90 -129 0
-86 -126 -51 -90 -129 0
-86 45 84 123 48 126 51 0
-86 45 84 123 48 126 90 0
-86 45 84 123 48 126 129 0
-86 45 84 123 48 51 90 0
-86 45 84 123 48 51 129 0
-86 45 84 123 48 90 129 0
-86 45 84 123 126 51 90 0
-86 45 84 123 126 51 129 0
-86 45 84 123 126 90 129 0
-86 45 84 123 51 90 129 0
-86 45 84 48 126 51 90 0
-86 45 84 48 126 51 129 0
-86 45 84 48 126 90 129 0
-86 45 84 48 51 90 129 0
-86 45 84 126 51 90 129 0
-86 45 123 48 126 51 90 0
-86 45 123 48 126 51 129 0
-86 45 123 48 126 90 129 0
-86 45 123 48 51 90 129 0
-86 45 123 126 51 90 129 0
-86 45 48 126 51 90 129 0
-86 84 123 48 126 51 90 0
-86 84 123 48 126 51 129 0
-86 84 123 48 126 90 129 0
-86 84 123 48 51 90 129 0
-86 84 123 126 51 90 129 0
-86 84 48 126 51 90 129 0
-86 123 48 126 51 90 129 0
-87 -43 -82 -121 -46 -124 -49 -88 0
-87 -43 -82 -121 -46 -124 -49 -127 0
-87 -43 -82 -121 -46 -124 -88 -127 0
-87 -43 -82 -121 -46 -49 -88 -127 0
-87 -43 -82 -121 -124 -49 -88 -127 0
-87 -43 -82 -46 -124 -49 -88 -127 0
-87 -43 -121 -46 -124 -49 -88 -127 0
-87 -82 -121 -46 -124 -49 -88 -127 0
-87 43 82 121 0
-87 43 82 46 0
-87 43 82 124 0
-87 43 82 49 0
-87 43 82 88 0
-87 43 82 127 0
-87 43 121 46 0
-87 43 121 124 0
-87 43 121 49 0
-87 43 121 88 0
-87 43 121 127 0
-87 43 46 124 0
-87 43 46 49 0
-87 43 46 88 0
-87 43 46 127 0
-87 43 124 49 0
-87 43 124 88 0
-87 43 124 127 0
-87 43 49 88 0
-87 43 49 127 0
-87 43 88 127 0
-87 82 121 46 0
-87 82 121 124 0
-87 82 121 49 0
-87 82 121 88 0
-87 82 121 127 0
-87 82 46 124 0
-87 82 46 49 0
-87 82 46 88 0
-87 82 46 127 0
-87 82 124 49 0
-87 82 124 88 0
-87 82 124 127 0
-87 82 49 88 0
-87 82 49 127 0
-87 82 88 127 0
-87 121 46 124 0
-87 121 46 49 0
-87 121 46 88 0
-87 121 46 127 0
-87 121 124 49 0
-87 121 124 88 0
-87 121 124 127 0
-87 121 49 88 0
-87 121 49 127 0
-87 121 88 127 0
-87 46 124 49 0
-87 46 124 88 0
-87 46 124 127 0
-87 46 49 88 0
-87 46 49 127 0
-87 46 88 127 0
-87 124 49 88 0
-87 124 49 127 0
-87 124 88 127 0
-87 49 88 127 0
-88 -89 0
-88 -90 0
-89 -90 0
-88 -47 -86 0
-88 -47 -125 0
-88 -47 -50 0
-88 -47 -128 0
-88 -47 -53 0
-88 -47 -92 0
-88 -47 -131 0
-88 -86 -125 0
-88 -86 -50 0
-88 -86 -128 0
-88 -86 -53 0
-88 -86 -92 0
-88 -86 -131 0
-88 -125 -50 0
-88 -125 -128 0
-88 -125 -53 0
-88 -125 -92 0
-88 -125 -131 0
-88 -50 -128 0
-88 -50 -53 0
-88 -50 -92 0
-88 -50 -131 0
-88 -128 -53 0
-88 -128 -92 0
-88 -128 -131 0
-88 -53 -92 0
-88 -53 -131 0
-88 -92 -131 0
-88 47 86 125 50 128 53 92 131 0
-89 -48 -87 -126 -51 0
-89 -48 -87 -126 -129 0
-89 -48 -87 -126 -54 0
-89 -48 -87 -126 -93 0
-89 -48 -87 -126 -132 0
-89 -48 -87 -51 -129 0
-89 -48 -87 -51 -54 0
-89 -48 -87 -51 -93 0
-89 -48 -87 -51 -132 0
-89 -48 -87 -129 -54 0
-89 -48 -87 -129 -93 0
-89 -48 -87 -129 -132 0
-89 -48 -87 -54 -93 0
-89 -48 -87 -54 -132 0
-89 -48 -87 -93 -132 0
-89 -48 -126 -51 -129 0
-89 -48 -126 -51 -54 0
-89 -48 -126 -51 -93 0
-89 -48 -126 -51 -132 0
-89 -48 -126 -129 -54 0
-89 -48 -126 -129 -93 0
-89 -48 -126 -129 -132 0
-89 -48 -126 -54 -93 0
-89 -48 -126 -54 -132 0
-89 -48 -126 -93 -132 0
-89 -48 -51 -129 -54 0
-89 -48 -51 -129 -93 0
-89 -48 -51 -129 -132 0
-89 -48 -51 -54 -93 0
-89 -48 -51 -54 -132 0
-89 -48 -51 -93 -132 0
-89 -48 -129 -54 -93 0
-89 -48 -129 -54 -132 0
-89 -48 -129 -93 -132 0
-89 -48 -54 -93 -132 0
-89 -87 -126 -51 -129 0
-89 -87 -126 -51 -54 0
-89 -87 -126 -51 -93 0
-89 -87 -126 -51 -132 0
-89 -87 -126 -129 -54 0
-89 -87 -126 -129 -93 0
-89 -87 -126 -129 -132 0
-89 -87 -126 -54 -93 0
-89 -87 -126 -54 -132 0
-89 -87 -126 -93 -132 0
-89 -87 -51 -129 -54 0
-89 -87 -51 -129 -93 0
-89 -87 -51 -129 -132 0
-89 -87 -51 -54 -93 0
-89 -87 -51 -54 -132 0
-89 -87 -51 -93 -132 0
-89 -87 -129 -54 -93 0
-89 -87 -129 -54 -132 0
-89 -87 -129 -93 -132 0
-89 -87 -54 -93 -132 0
-89 -126 -51 -129 -54 0
-89 -126 -51 -129 -93 0
-89 -126 -51 -129 -132 0
-89 -126 -51 -54 -93 0
-89 -126 -51 -54 -132 0
-89 -126 -51 -93 -132 0
-89 -126 -129 -54 -93 0
-89 -126 -129 -54 -132 0
-89 -126 -129 -93 -132 0
-89 -126 -54 -93 -132 0
-89 -51 -129 -54 -93 0
-89 -51 -129 -54 -132 0
-89 -51 -129 -93 -132 0
-89 -51 -54 -93 -132 0
-89 -129 -54 -93 -132 0
-89 48 87 126 51 129 54 0
-89 48 87 126 51 129 93 0
-89 48 87 126 51 129 132 0
-89 48 87 126 51 54 93 0
-89 48 87 126 51 54 132 0
-89 48 87 126 51 93 132 0
-89 48 87 126 129 54 93 0
-89 48 87 126 129 54 132 0
-89 48 87 126 129 93 132 0
-89 48 87 126 54 93 132 0
-89 48 87 51 129 54 93 0
-89 48 87 51 129 54 132 0
-89 48 87 51 129 93 132 0
-89 48 87 51 54 93 132 0
-89 48 87 129 54 93 132 0
-89 48 126 51 129 54 93 0
-89 48 126 51 129 54 132 0
-89 48 126 51 129 93 132 0
-89 48 126 51 54 93 132 0
-89 48 126 129 54 93 132 0
-89 48 51 129 54 93 132 0
-89 87 126 51 129 54 93 0
-89 87 126 51 129 54 132 0
-89 87 126 51 129 93 132 0
-89 87 126 51 54 93 132 0
-89 87 126 129 54 93 132 0
-89 87 51 129 54 93 132 0
-89 126 51 129 54 93 132 0
-90 -46 -85 -124 -49 -127 -52 -91 0
-90 -46 -85 -124 -49 -127 -52 -130 0
-90 -46 -85 -124 -49 -127 -91 -130 0
-90 -46 -85 -124 -49 -52 -91 -130 0
-90 -46 -85 -124 -127 -52 -91 -130 0
-90 -46 -85 -49 -127 -52 -91 -130 0
-90 -46 -124 -49 -127 -52 -91 -130 0
-90 -85 -124 -49 -127 -52 -91 -130 0
-90 46 85 124 0
-90 46 85 49 0
-90 46 85 127 0
-90 46 85 52 0
-90 46 85 91 0
-90 46 85 130 0
-90 46 124 49 0
-90 46 124 127 0
-90 46 124 52 0
-90 46 124 91 0
-90 46 124 130 0
-90 46 49 127 0
-90 46 49 52 0
-90 46 49 91 0
-90 46 49 130 0
-90 46 127 52 0
-90 46 127 91 0
-90 46 127 130 0
-90 46 52 91 0
-90 46 52 130 0
-90 46 91 130 0
-90 85 124 49 0
-90 85 124 127 0
-90 85 124 52 0
-90 85 124 91 0
-90 85 124 130 0
-90 85 49 127 0
-90 85 49 52 0
-90 85 49 91 0
-90 85 49 130 0
-90 85 127 52 0
-90 85 127 91 0
-90 85 127 130 0
-90 85 52 91 0
-90 85 52 130 0
-90 85 91 130 0
-90 124 49 127 0
-90 124 49 52 0
-90 124 49 91 0
-90 124 49 130 0
-90 124 127 52 0
-90 124 127 91 0
-90 124 127 130 0
-90 124 52 91 0
-90 124 52 130 0
-90 124 91 130 0
-90 49 127 52 0
-90 49 127 91 0
-90 49 127 130 0
-90 49 52 91 0
-90 49 52 130 0
-90 49 91 130 0
-90 127 52 91 0
-90 127 52 130 0
-90 127 91 130 0
-90 52 91 130 0
-91 -92 0
-91 -93 0
-92 -93 0
-91 -50 -89 0
-91 -50 -128 0
-91 -50 -53 0
-91 -50 -131 0
-91 -50 -56 0
-91 -50 -95 0
-91 -50 -134 0
-91 -89 -128 0
-91 -89 -53 0
-91 -89 -131 0
-91 -89 -56 0
-91 -89 -95 0
-91 -89 -134 0
-91 -128 -53 0
-91 -128 -131 0
-91 -128 -56 0
-91 -128 -95 0
-91 -128 -134 0
-91 -53 -131 0
-91 -53 -56 0
-91 -53 -95 0
-91 -53 -134 0
-91 -131 -56 0
-91 -131 -95 0
-91 -131 -134 0
-91 -56 -95 0
-91 -56 -134 0
-91 -95 -134 0
-91 50 89 128 53 131 56 95 134 0
-92 -51 -90 -129 -54 0
-92 -51 -90 -129 -132 0
-92 -51 -90 -129 -57 0
-92 -51 -90 -129 -96 0
-92 -51 -90 -129 -135 0
-92 -51 -90 -54 -132 0
-92 -51 -90 -54 -57 0
-92 -51 -90 -54 -96 0
-92 -51 -90 -54 -135 0
-92 -51 -90 -132 -57 0
-92 -51 -90 -132 -96 0
-92 -51 -90 -132 -135 0
-92 -51 -90 -57 -96 0
-92 -51 -90 -57 -135 0
-92 -51 -90 -96 -135 0
-92 -51 -129 -54 -132 0
-92 -51 -129 -54 -57 0
-92 -51 -129 -54 -96 0
-92 -51 -129 -54 -135 0
-92 -51 -129 -132 -57 0
-92 -51 -129 -132 -96 0
-92 -51 -129 -132 -135 0
-92 -51 -129 -57 -96 0
-92 -51 -129 -57 -135 0
-92 -51 -129 -96 -135 0
-92 -51 -54 -132 -57 0
-92 -51 -54 -132 -96 0
-92 -51 -54 -132 -135 0
-92 -51 -54 -57 -96 0
-92 -51 -54 -57 -135 0
-92 -51 -54 -96 -135 0
-92 -51 -132 -57 -96 0
-92 -51 -132 -57 -135 0
-92 -51 -132 -96 -135 0
-92 -51 -57 -96 -135 0
-92 -90 -129 -54 -132 0
-92 -90 -129 -54 -57 0
-92 -90 -129 -54 -96 0
-92 -90 -129 -54 -135 0
-92 -90 -129 -132 -57 0
-92 -90 -129 -132 -96 0
-92 -90 -129 -132 -135 0
-92 -90 -129 -57 -96 0
-92 -90 -129 -57 -135 0
-92 -90 -129 -96 -135 0
-92 -90 -54 -132 -57 0
-92 -90 -54 -132 -96 0
-92 -90 -54 -132 -135 0
-92 -90 -54 -57 -96 0
-92 -90 -54 -57 -135 0
-92 -90 -54 -96 -135 0
-92 -90 -132 -57 -96 0
-92 -90 -132 -57 -135 0
-92 -90 -132 -96 -135 0
-92 -90 -57 -96 -135 0
-92 -129 -54 -132 -57 0
-92 -129 -54 -132 -96 0
-92 -129 -54 -132 -135 0
-92 -129 -54 -57 -96 0
-92 -129 -54 -57 -135 0
-92 -129 -54 -96 -135 0
-92 -129 -132 -57 -96 0
-92 -129 -132 -57 -135 0
-92 -129 -132 -96 -135 0
-92 -129 -57 -96 -135 0
-92 -54 -132 -57 -96 0
-92 -54 -132 -57 -135 0
-92 -54 -132 -96 -135 0
-92 -54 -57 -96 -135 0
-92 -132 -57 -96 -135 0
-92 51 90 129 54 132 57 0
-92 51 90 129 54 132 96 0
-92 51 90 129 54 132 135 0
-92 51 90 129 54 57 96 0
-92 51 90 129 54 57 135 0
-92 51 90 129 54 96 135 0
-92 51 90 129 132 57 96 0
-92 51 90 129 132 57 135 0
-92 51 90 129 132 96 135 0
-92 51 90 129 57 96 135 0
-92 51 90 54 132 57 96 0
-92 51 90 54 132 57 135 0
-92 51 90 54 132 96 135 0
-92 51 90 54 57 96 135 0
-92 51 90 132 57 96 135 0
-92 51 129 54 132 57 96 0
-92 51 129 54 132 57 135 0
-92 51 129 54 132 96 135 0
-92 51 129 54 57 96 135 0
-92 51 129 132 57 96 135 0
-92 51 54 132 57 96 135 0
-92 90 129 54 132 57 96 0
-92 90 129 54 132 57 135 0
-92 90 129 54 132 96 135 0
-92 90 129 54 57 96 135 0
-92 90 129 132 57 96 135 0
-92 90 54 132 57 96 135 0
-92 129 54 132 57 96 135 0
-93 -49 -88 -127 -52 -130 -55 -94 0
-93 -49 -88 -127 -52 -130 -55 -133 0
-93 -49 -88 -127 -52 -130 -94 -133 0
-93 -49 -88 -127 -52 -55 -94 -133 0
-93 -49 -88 -127 -130 -55 -94 -133 0
-93 -49 -88 -52 -130 -55 -94 -133 0
-93 -49 -127 -52 -130 -55 -94 -133 0
-93 -88 -127 -52 -130 -55 -94 -133 0
-93 49 88 127 0
-93 49 88 52 0
-93 49 88 130 0
-93 49 88 55 0
-93 49 88 94 0
-93 49 88 133 0
-93 49 127 52 0
-93 49 127 130 0
-93 49 127 55 0
-93 49 127 94 0
-93 49 127 133 0
-93 49 52 130 0
-93 49 52 55 0
-93 49 52 94 0
-93 49 52 133 0
-93 49 130 55 0
-93 49 130 94 0
-93 49 130 133 0
-93 49 55 94 0
-93 49 55 133 0
-93 49 94 133 0
-93 88 127 52 0
-93 88 127 130 0
-93 88 127 55 0
-93 88 127 94 0
-93 88 127 133 0
-93 88 52 130 0
-93 88 52 55 0
-93 88 52 94 0
-93 88 52 133 0
-93 88 130 55 0
-93 88 130 94 0
-93 88 130 133 0
-93 88 55 94 0
-93 88 55 133 0
-93 88 94 133 0
-93 127 52 130 0
-93 127 52 55 0
-93 127 52 94 0
-93 127 52 133 0
-93 127 130 55 0
-93 127 130 94 0
-93 127 130 133 0
-93 127 55 94 0
-93 127 55 133 0
-93 127 94 133 0
-93 52 130 55 0
-93 52 130 94 0
-93 52 130 133 0
-93 52 55 94 0
-93 52 55 133 0
-93 52 94 133 0
-93 130 55 94 0
-93 130 55 133 0
-93 130 94 133 0
-93 55 94 133 0
-94 -95 0
-94 -96 0
-95 -96 0
-94 -53 -92 0
-94 -53 -131 0
-94 -53 -56 0
-94 -53 -134 0
-94 -53 -59 0
-94 -53 -98 0
-94 -53 -137 0
-94 -92 -131 0
-94 -92 -56 0
-94 -92 -134 0
-94 -92 -59 0
-94 -92 -98 0
-94 -92 -137 0
-94 -131 -56 0
-94 -131 -134 0
-94 -131 -59 0
-94 -131 -98 0
-94 -131 -137 0
-94 -56 -134 0
-94 -56 -59 0
-94 -56 -98 0
-94 -56 -137 0
-94 -134 -59 0
-94 -134 -98 0
-94 -134 -137 0
-94 -59 -98 0
-94 -59 -137 0
-94 -98 -137 0
-94 53 92 131 56 134 59 98 137 0
-95 -54 -93 -132 -57 0
-95 -54 -93 -132 -135 0
-95 -54 -93 -132 -60 0
-95 -54 -93 -132 -99 0
-95 -54 -93 -132 -138 0
-95 -54 -93 -57 -135 0
-95 -54 -93 -57 -60 0
-95 -54 -93 -57 -99 0
-95 -54 -93 -57 -138 0
-95 -54 -93 -135 -60 0
-95 -54 -93 -135 -99 0
-95 -54 -93 -135 -138 0
-95 -54 -93 -60 -99 0
-95 -54 -93 -60 -138 0
-95 -54 -93 -99 -138 0
-95 -54 -132 -57 -135 0
-95 -54 -132 -57 -60 0
-95 -54 -132 -57 -99 0
-95 -54 -132 -57 -138 0
-95 -54 -132 -135 -60 0
-95 -54 -132 -135 -99 0
-95 -54 -132 -135 -138 0
-95 -54 -132 -60 -99 0
-95 -54 -132 -60 -138 0
-95 -54 -132 -99 -138 0
-95 -54 -57 -135 -60 0
-95 -54 -57 -135 -99 0
-95 -54 -57 -135 -138 0
-95 -54 -57 -60 -99 0
-95 -54 -57 -60 -138 0
-95 -54 -57 -99 -138 0
-95 -54 -135 -60 -99 0
-95 -54 -135 -60 -138 0
-95 -54 -135 -99 -138 0
-95 -54 -60 -99 -138 0
-95 -93 -132 -57 -135 0
-95 -93 -132 -57 -60 0
-95 -93 -132 -57 -99 0
-95 -93 -132 -57 -138 0
-95 -93 -132 -135 -60 0
-95 -93 -132 -135 -99 0
-95 -93 -132 -135 -138 0
-95 -93 -132 -60 -99 0
-95 -93 -132 -60 -138 0
-95 -93 -132 -99 -138 0
-95 -93 -57 -135 -60 0
-95 -93 -57 -135 -99 0
-95 -93 -57 -135 -138 0
-95 -93 -57 -60 -99 0
-95 -93 -57 -60 -138 0
-95 -93 -57 -99 -138 0
-95 -93 -135 -60 -99 0
-95 -93 -135 -60 -138 0
-95 -93 -135 -99 -138 0
-95 -93 -60 -99 -138 0
-95 -132 -57 -135 -60 0
-95 -132 -57 -135 -99 0
-95 -132 -57 -135 -138 0
-95 -132 -57 -60 -99 0
-95 -132 -57 -60 -138 0
-95 -132 -57 -99 -138 0
-95 -132 -135 -60 -99 0
-95 -132 -135 -60 -138 0
-95 -132 -135 -99 -138 0
-95 -132 -60 -99 -138 0
-95 -57 -135 -60 -99 0
-95 -57 -135 -60 -138 0
-95 -57 -135 -99 -138 0
-95 -57 -60 -99 -138 0
-95 -135 -60 -99 -138 0
-95 54 93 132 57 135 60 0
-95 54 93 132 57 135 99 0
-95 54 93 132 57 135 138 0
-95 54 93 132 57 60 99 0
-95 54 93 132 57 60 138 0
-95 54 93 132 57 99 138 0
-95 54 93 132 135 60 99 0
-95 54 93 132 135 60 138 0
-95 54 93 132 135 99 138 0
-95 54 93 132 60 99 138 0
-95 54 93 57 135 60 99 0
-95 54 93 57 135 60 138 0
-95 54 93 57 135 99 138 0
-95 54 93 57 60 99 138 0
-95 54 93 135 60 99 138 0
-95 54 132 57 135 60 99 0
-95 54 132 57 135 60 138 0
-95 54 132 57 135 99 138 0
-95 54 132 57 60 99 138 0
-95 54 132 135 60 99 138 0
-95 54 57 135 60 99 138 0
-95 93 132 57 135 60 99 0
-95 93 132 57 135 60 138 0
-95 93 132 57 135 99 138 0
-95 93 132 57 60 99 138 0
-95 93 132 135 60 99 138 0
-95 93 57 135 60 99 138 0
-95 132 57 135 60 99 138 0
-96 -52 -91 -130 -55 -133 -58 -97 0
-96 -52 -91 -130 -55 -133 -58 -136 0
-96 -52 -91 -130 -55 -133 -97 -136 0
-96 -52 -91 -130 -55 -58 -97 -136 0
-96 -52 -91 -130 -133 -58 -97 -136 0
-96 -52 -91 -55 -133 -58 -97 -136 0
-96 -52 -130 -55 -133 -58 -97 -136 0
-96 -91 -130 -55 -133 -58 -97 -136 0
-96 52 91 130 0
-96 52 91 55 0
-96 52 91 133 0
-96 52 91 58 0
-96 52 91 97 0
-96 52 91 136 0
-96 52 130 55 0
-96 52 130 133 0
-96 52 130 58 0
-96 52 130 97 0
-96 52 130 136 0
-96 52 55 133 0
-96 52 55 58 0
-96 52 55 97 0
-96 52 55 136 0
-96 52 133 58 0
-96 52 133 97 0
-96 52 133 136 0
-96 52 58 97 0
-96 52 58 136 0
-96 52 97 136 0
-96 91 130 55 0
-96 91 130 133 0
-96 91 130 58 0
-96 91 130 97 0
-96 91 130 136 0
-96 91 55 133 0
-96 91 55 58 0
-96 91 55 97 0
-96 91 55 136 0
-96 91 133 58 0
-96 91 133 97 0
-96 91 133 136 0
-96 91 58 97 0
-96 91 58 136 0
-96 91 97 136 0
-96 130 55 133 0
-96 130 55 58 0
-96 130 55 97 0
-96 130 55 136 0
-96 130 133 58 0
-96 130 133 97 0
-96 130 133 136 0
-96 130 58 97 0
-96 130 58 136 0
-96 130 97 136 0
-96 55 133 58 0
-96 55 133 97 0
-96 55 133 136 0
-96 55 58 97 0
-96 55 58 136 0
-96 55 97 136 0
-96 133 58 97 0
-96 133 58 136 0
-96 133 97 136 0
-96 58 97 136 0
-97 -98 0
-97 -99 0
-98 -99 0
-97 -56 -95 0
-97 -56 -134 0
-97 -56 -59 0
-97 -56 -137 0
-97 -56 -62 0
-97 -56 -101 0
-97 -56 -140 0
-97 -95 -134 0
-97 -95 -59 0
-97 -95 -137 0
-97 -95 -62 0
-97 -95 -101 0
-97 -95 -140 0
-97 -134 -59 0
-97 -134 -137 0
-97 -134 -62 0
-97 -134 -101 0
-97 -134 -140 0
-97 -59 -137 0
-97 -59 -62 0
-97 -59 -101 0
-97 -59 -140 0
-97 -137 -62 0
-97 -137 -101 0
-97 -137 -140 0
-97 -62 -101 0
-97 -62 -140 0
-97 -101 -140 0
-97 56 95 134 59 137 62 101 140 0
-98 -57 -96 -135 -60 0
-98 -57 -96 -135 -138 0
-98 -57 -96 -135 -63 0
-98 -57 -96 -135 -102 0
-98 -57 -96 -135 -141 0
-98 -57 -96 -60 -138 0
-98 -57 -96 -60 -63 0
-98 -57 -96 -60 -102 0
-98 -57 -96 -60 -141 0
-98 -57 -96 -138 -63 0
-98 -57 -96 -138 -102 0
-98 -57 -96 -138 -141 0
-98 -57 -96 -63 -102 0
-98 -57 -96 -63 -141 0
-98 -57 -96 -102 -141 0
-98 -57 -135 -60 -138 0
-98 -57 -135 -60 -63 0
-98 -57 -135 -60 -102 0
-98 -57 -135 -60 -141 0
-98 -57 -135 -138 -63 0
-98 -57 -135 -138 -102 0
-98 -57 -135 -138 -141 0
-98 -57 -135 -63 -102 0
-98 -57 -135 -63 -141 0
-98 -57 -135 -102 -141 0
-98 -57 -60 -138 -63 0
-98 -57 -60 -138 -102 0
-98 -57 -60 -138 -141 0
-98 -57 -60 -63 -102 0
-98 -57 -60 -63 -141 0
-98 -57 -60 -102 -141 0
-98 -57 -138 -63 -102 0
-98 -57 -138 -63 -141 0
-98 -57 -138 -102 -141 0
-98 -57 -63 -102 -141 0
-98 -96 -135 -60 -138 0
-98 -96 -135 -60 -63 0
-98 -96 -135 -60 -102 0
-98 -96 -135 -60 -141 0
-98 -96 -135 -138 -63 0
-98 -96 -135 -138 -102 0
-98 -96 -135 -138 -141 0
-98 -96 -135 -63 -102 0
-98 -96 -135 -63 -141 0
-98 -96 -135 -102 -141 0
-98 -96 -60 -138 -63 0
-98 -96 -60 -138 -102 0
-98 -96 -60 -138 -141 0
-98 -96 -60 -63 -102 0
-98 -96 -60 -63 -141 0
-98 -96 -60 -102 -141 0
-98 -96 -138 -63 -102 0
-98 -96 -138 -63 -141 0
-98 -96 -138 -102 -141 0
-98 -96 -63 -102 -141 0
-98 -135 -60 -138 -63 0
-98 -135 -60 -138 -102 0
-98 -135 -60 -138 -141 0
-98 -135 -60 -63 -102 0
-98 -135 -60 -63 -141 0
-98 -135 -60 -102 -141 0
-98 -135 -138 -63 -102 0
-98 -135 -138 -63 -141 0
-98 -135 -138 -102 -141 0
-98 -135 -63 -102 -141 0
-98 -60 -138 -63 -102 0
-98 -60 -138 -63 -141 0
-98 -60 -138 -102 -141 0
-98 -60 -63 -102 -141 0
-98 -138 -63 -102 -141 0
-98 57 96 135 60 138 63 0
-98 57 96 135 60 138 102 0
-98 57 96 135 60 138 141 0
-98 57 96 135 60 63 102 0
-98 57 96 135 60 63 141 0
-98 57 96 135 60 102 141 0
-98 57 96 135 138 63 102 0
-98 57 96 135 138 63 141 0
-98 57 96 135 138 102 141 0
-98 57 96 135 63 102 141 0
-98 57 96 60 138 63 102 0
-98 57 96 60 138 63 141 0
-98 57 96 60 138 102 141 0
-98 57 96 60 63 102 141 0
-98 57 96 138 63 102 141 0
-98 57 135 60 138 63 102 0
-98 57 135 60 138 63 141 0
-98 57 135 60 138 102 141 0
-98 57 135 60 63 102 141 0
-98 57 135 138 63 102 141 0
-98 57 60 138 63 102 141 0
-98 96 135 60 138 63 102 0
-98 96 135 60 138 63 141 0
-98 96 135 60 138 102 141 0
-98 96 135 60 63 102 141 0
-98 96 135 138 63 102 141 0
-98 96 60 138 63 102 141 0
-98 135 60 138 63 102 141 0
-99 -55 -94 -133 -58 -136 -61 -100 0
-99 -55 -94 -133 -58 -136 -61 -139 0
-99 -55 -94 -133 -58 -136 -100 -139 0
-99 -55 -94 -133 -58 -61 -100 -139 0
-99 -55 -94 -133 -136 -61 -100 -139 0
-99 -55 -94 -58 -136 -61 -100 -139 0
-99 -55 -133 -58 -136 -61 -100 -139 0
-99 -94 -133 -58 -136 -61 -100 -139 0
-99 55 94 133 0
-99 55 94 58 0
-99 55 94 136 0
-99 55 94 61 0
-99 55 94 100 0
-99 55 94 139 0
-99 55 133 58 0
-99 55 133 136 0
-99 55 133 61 0
-99 55 133 100 0
-99 55 133 139 0
-99 55 58 136 0
-99 55 58 61 0
-99 55 58 100 0
-99 55 58 139 0
-99 55 136 61 0
-99 55 136 100 0
-99 55 136 139 0
-99 55 61 100 0
-99 55 61 139 0
-99 55 100 139 0
-99 94 133 58 0
-99 94 133 136 0
-99 94 133 61 0
-99 94 133 100 0
-99 94 133 139 0
-99 94 58 136 0
-99 94 58 61 0
-99 94 58 100 0
-99 94 58 139 0
-99 94 136 61 0
-99 94 136 100 0
-99 94 136 139 0
-99 94 61 100 0
-99 94 61 139 0
-99 94 100 139 0
-99 133 58 136 0
-99 133 58 61 0
-99 133 58 100 0
-99 133 58 139 0
-99 133 136 61 0
-99 133 136 100 0
-99 133 136 139 0
-99 133 61 100 0
-99 133 61 139 0
-99 133 100 139 0
-99 58 136 61 0
-99 58 136 100 0
-99 58 136 139 0
-99 58 61 100 0
-99 58 61 139 0
-99 58 100 139 0
-99 136 61 100 0
-99 136 61 139 0
-99 136 100 139 0
-99 61 100 139 0
-100 -101 0
-100 -102 0
-101 -102 0
-100 -59 -98 0
-100 -59 -137 0
-100 -59 -62 0
-100 -59 -140 0
-100 -59 -65 0
-100 -59 -104 0
-100 -59 -143 0
-100 -98 -137 0
-100 -98 -62 0
-100 -98 -140 0
-100 -98 -65 0
-100 -98 -104 0
-100 -98 -143 0
-100 -137 -62 0
-100 -137 -140 0
-100 -137 -65 0
-100 -137 -104 0
-100 -137 -143 0
-100 -62 -140 0
-100 -62 -65 0
-100 -62 -104 0
-100 -62 -143 0
-100 -140 -65 0
-100 -140 -104 0
-100 -140 -143 0
-100 -65 -104 0
-100 -65 -143 0
-100 -104 -143 0
-100 59 98 137 62 140 65 104 143 0
-101 -60 -99 -138 -63 0
-101 -60 -99 -138 -141 0
-101 -60 -99 -138 -66 0
-101 -60 -99 -138 -105 0
-101 -60 -99 -138 -144 0
-101 -60 -99 -63 -141 0
-101 -60 -99 -63 -66 0
-101 -60 -99 -63 -105 0
-101 -60 -99 -63 -144 0
-101 -60 -99 -141 -66 0
-101 -60 -99 -141 -105 0
-101 -60 -99 -141 -144 0
-101 -60 -99 -66 -105 0
-101 -60 -99 -66 -144 0
-101 -60 -99 -105 -144 0
-101 -60 -138 -63 -141 0
-101 -60 -138 -63 -66 0
-101 -60 -138 -63 -105 0
-101 -60 -138 -63 -144 0
-101 -60 -138 -141 -66 0
-101 -60 -138 -141 -105 0
-101 -60 -138 -141 -144 0
-101 -60 -138 -66 -105 0
-101 -60 -138 -66 -144 0
-101 -60 -138 -105 -144 0
-101 -60 -63 -141 -66 0
-101 -60 -63 -141 -105 0
-101 -60 -63 -141 -144 0
-101 -60 -63 -66 -105 0
-101 -60 -63 -66 -144 0
-101 -60 -63 -105 -144 0
-101 -60 -141 -66 -105 0
-101 -60 -141 -66 -144 0
-101 -60 -141 -105 -144 0
-101 -60 -66 -105 -144 0
-101 -99 -138 -63 -141 0
-101 -99 -138 -63 -66 0
-101 -99 -138 -63 -105 0
-101 -99 -138 -63 -144 0
-101 -99 -138 -141 -66 0
-101 -99 -138 -141 -105 0
-101 -99 -138 -141 -144 0
-101 -99 -138 -66 -105 0
-101 -99 -138 -66 -144 0
-101 -99 -138 -105 -144 0
-101 -99 -63 -141 -66 0
-101 -99 -63 -141 -105 0
-101 -99 -63 -141 -144 0
-101 -99 -63 -66 -105 0
-101 -99 -63 -66 -144 0
-101 -99 -63 -105 -144 0
-101 -99 -141 -66 -105 0
-101 -99 -141 -66 -144 0
-101 -99 -141 -105 -144 0
-101 -99 -66 -105 -144 0
-101 -138 -63 -141 -66 0
-101 -138 -63 -141 -105 0
-101 -138 -63 -141 -144 0
-101 -138 -63 -66 -105 0
-101 -138 -63 -66 -144 0
-101 -138 -63 -105 -144 0
-101 -138 -141 -66 -105 0
-101 -138 -141 -66 -144 0
-101 -138 -141 -105 -144 0
-101 -138 -66 -105 -144 0
-101 -63 -141 -66 -105 0
-101 -63 -141 -66 -144 0
-101 -63 -141 -105 -144 0
-101 -63 -66 -105 -144 0
-101 -141 -66 -105 -144 0
-101 60 99 138 63 141 66 0
-101 60 99 138 63 141 105 0
-101 60 99 138 63 141 144 0
-101 60 99 138 63 66 105 0
-101 60 99 138 63 66 144 0
-101 60 99 138 63 105 144 0
-101 60 99 138 141 66 105 0
-101 60 99 138 141 66 144 0
-101 60 99 138 141 105 144 0
-101 60 99 138 66 105 144 0
-101 60 99 63 141 66 105 0
-101 60 99 63 141 66 144 0
-101 60 99 63 141 105 144 0
-101 60 99 63 66 105 144 0
-101 60 99 141 66 105 144 0
-101 60 138 63 141 66 105 0
-101 60 138 63 141 66 144 0
-101 60 138 63 141 105 144 0
-101 60 138 63 66 105 144 0
-101 60 138 141 66 105 144 0
-101 60 63 141 66 105 144 0
-101 99 138 63 141 66 105 0
-101 99 138 63 141 66 144 0
-101 99 138 63 141 105 144 0
-101 99 138 63 66 105 144 0
-101 99 138 141 66 105 144 0
-101 99 63 141 66 105 144 0
-101 138 63 141 66 105 144 0
-102 -58 -97 -136 -61 -139 -64 -103 0
-102 -58 -97 -136 -61 -139 -64 -142 0
-102 -58 -97 -136 -61 -139 -103 -142 0
-102 -58 -97 -136 -61 -64 -103 -142 0
-102 -58 -97 -136 -139 -64 -103 -142 0
-102 -58 -97 -61 -139 -64 -103 -142 0
-102 -58 -136 -61 -139 -64 -103 -142 0
-102 -97 -136 -61 -139 -64 -103 -142 0
-102 58 97 136 0
-102 58 97 61 0
-102 58 97 139 0
-102 58 97 64 0
-102 58 97 103 0
-102 58 97 142 0
-102 58 136 61 0
-102 58 136 139 0
-102 58 136 64 0
-102 58 136 103 0
-102 58 136 142 0
-102 58 61 139 0
-102 58 61 64 0
-102 58 61 103 0
-102 58 61 142 0
-102 58 139 64 0
-102 58 139 103 0
-102 58 139 142 0
-102 58 64 103 0
-102 58 64 142 0
-102 58 103 142 0
-102 97 136 61 0
-102 97 136 139 0
-102 97 136 64 0
-102 97 136 103 0
-102 97 136 142 0
-102 97 61 139 0
-102 97 61 64 0
-102 97 61 103 0
-102 97 61 142 0
-102 97 139 64 0
-102 97 139 103 0
-102 97 139 142 0
-102 97 64 103 0
-102 97 64 142 0
-102 97 103 142 0
-102 136 61 139 0
-102 136 61 64 0
-102 136 61 103 0
-102 136 61 142 0
-102 136 139 64 0
-102 136 139 103 0
-102 136 139 142 0
-102 136 64 103 0
-102 136 64 142 0
-102 136 103 142 0
-102 61 139 64 0
-102 61 139 103 0
-102 61 139 142 0
-102 61 64 103 0
-102 61 64 142 0
-102 61 103 142 0
-102 139 64 103 0
-102 139 64 142 0
-102 139 103 142 0
-102 64 103 142 0
-103 -104 0
-103 -105 0
-104 -105 0
-103 -62 -101 0
-103 -62 -140 0
-103 -62 -65 0
-103 -62 -143 0
-103 -62 -68 0
-103 -62 -107 0
-103 -62 -146 0
-103 -101 -140 0
-103 -101 -65 0
-103 -101 -143 0
-103 -101 -68 0
-103 -101 -107 0
-103 -101 -146 0
-103 -140 -65 0
-103 -140 -143 0
-103 -140 -68 0
-103 -140 -107 0
-103 -140 -146 0
-103 -65 -143 0
-103 -65 -68 0
-103 -65 -107 0
-103 -65 -146 0
-103 -143 -68 0
-103 -143 -107 0
-103 -143 -146 0
-103 -68 -107 0
-103 -68 -146 0
-103 -107 -146 0
-103 62 101 140 65 143 68 107 146 0
-104 -63 -102 -141 -66 0
-104 -63 -102 -141 -144 0
-104 -63 -102 -141 -69 0
-104 -63 -102 -141 -108 0
-104 -63 -102 -141 -147 0
-104 -63 -102 -66 -144 0
-104 -63 -102 -66 -69 0
-104 -63 -102 -66 -108 0
-104 -63 -102 -66 -147 0
-104 -63 -102 -144 -69 0
-104 -63 -102 -144 -108 0
-104 -63 -102 -144 -147 0
-104 -63 -102 -69 -108 0
-104 -63 -102 -69 -147 0
-104 -63 -102 -108 -147 0
-104 -63 -141 -66 -144 0
-104 -63 -141 -66 -69 0
-104 -63 -141 -66 -108 0
-104 -63 -141 -66 -147 0
-104 -63 -141 -144 -69 0
-104 -63 -141 -144 -108 0
-104 -63 -141 -144 -147 0
-104 -63 -141 -69 -108 0
-104 -63 -141 -69 -147 0
-104 -63 -141 -108 -147 0
-104 -63 -66 -144 -69 0
-104 -63 -66 -144 -108 0
-104 -63 -66 -144 -147 0
-104 -63 -66 -69 -108 0
-104 -63 -66 -69 -147 0
-104 -63 -66 -108 -147 0
-104 -63 -144 -69 -108 0
-104 -63 -144 -69 -147 0
-104 -63 -144 -108 -147 0
-104 -63 -69 -108 -147 0
-104 -102 -141 -66 -144 0
-104 -102 -141 -66 -69 0
-104 -102 -141 -66 -108 0
-104 -102 -141 -66 -147 0
-104 -102 -141 -144 -69 0
-104 -102 -141 -144 -108 0
-104 -102 -141 -144 -147 0
-104 -102 -141 -69 -108 0
-104 -102 -141 -69 -147 0
-104 -102 -141 -108 -147 0
-104 -102 -66 -144 -69 0
-104 -102 -66 -144 -108 0
-104 -102 -66 -144 -147 0
-104 -102 -66 -69 -108 0
-104 -102 -66 -69 -147 0
-104 -102 -66 -108 -147 0
-104 -102 -144 -69 -108 0
-104 -102 -144 -69 -147 0
-104 -102 -144 -108 -147 0
-104 -102 -69 -108 -147 0
-104 -141 -66 -144 -69 0
-104 -141 -66 -144 -108 0
-104 -141 -66 -144 -147 0
-104 -141 -66 -69 -108 0
-104 -141 -66 -69 -147 0
-104 -141 -66 -108 -147 0
-104 -141 -144 -69 -108 0
-104 -141 -144 -69 -147 0
-104 -141 -144 -108 -147 0
-104 -141 -69 -108 -147 0
-104 -66 -144 -69 -108 0
-104 -66 -144 -69 -147 0
-104 -66 -144 -108 -147 0
-104 -66 -69 -108 -147 0
-104 -144 -69 -108 -147 0
-104 63 102 141 66 144 69 0
-104 63 102 141 66 144 108 0
-104 63 102 141 66 144 147 0
-104 63 102 141 66 69 108 0
-104 63 102 141 66 69 147 0
-104 63 102 141 66 108 147 0
-104 63 102 141 144 69 108 0
-104 63 102 141 144 69 147 0
-104 63 102 141 144 108 147 0
-104 63 102 141 69 108 147 0
-104 63 102 66 144 69 108 0
-104 63 102 66 144 69 147 0
-104 63 102 66 144 108 147 0
-104 63 102 66 69 108 147 0
-104 63 102 144 69 108 147 0
-104 63 141 66 144 69 108 0
-104 63 141 66 144 69 147 0
-104 63 141 66 144 108 147 0
-104 63 141 66 69 108 147 0
-104 63 141 144 69 108 147 0
-104 63 66 144 69 108 147 0
-104 102 141 66 144 69 108 0
-104 102 141 66 144 69 147 0
-104 102 141 66 144 108 147 0
-104 102 141 66 69 108 147 0
-104 102 141 144 69 108 147 0
-104 102 66 144 69 108 147 0
-104 141 66 144 69 108 147 0
-105 -61 -100 -139 -64 -142 -67 -106 0
-105 -61 -100 -139 -64 -142 -67 -145 0
-105 -61 -100 -139 -64 -142 -106 -145 0
-105 -61 -100 -139 -64 -67 -106 -145 0
-105 -61 -100 -139 -142 -67 -106 -145 0
-105 -61 -100 -64 -142 -67 -106 -145 0
-105 -61 -139 -64 -142 -67 -106 -145 0
-105 -100 -139 -64 -142 -67 -106 -145 0
-105 61 100 139 0
-105 61 100 64 0
-105 61 100 142 0
-105 61 100 67 0
-105 61 100 106 0
-105 61 100 145 0
-105 61 139 64 0
-105 61 139 142 0
-105 61 139 67 0
-105 61 139 106 0
-105 61 139 145 0
-105 61 64 142 0
-105 61 64 67 0
-105 61 64 106 0
-105 61 64 145 0
-105 61 142 67 0
-105 61 142 106 0
-105 61 142 145 0
-105 61 67 106 0
-105 61 67 145 0
-105 61 106 145 0
-105 100 139 64 0
-105 100 139 142 0
-105 100 139 67 0
-105 100 139 106 0
-105 100 139 145 0
-105 100 64 142 0
-105 100 64 67 0
-105 100 64 106 0
-105 100 64 145 0
-105 100 142 67 0
-105 100 142 106 0
-105 100 142 145 0
-105 100 67 106 0
-105 100 67 145 0
-105 100 106 145 0
-105 139 64 142 0
-105 139 64 67 0
-105 139 64 106 0
-105 139 64 145 0
-105 139 142 67 0
-105 139 142 106 0
-105 139 142 145 0
-105 139 67 106 0
-105 139 67 145 0
-105 139 106 145 0
-105 64 142 67 0
-105 64 142 106 0
-105 64 142 145 0
-105 64 67 106 0
-105 64 67 145 0
-105 64 106 145 0
-105 142 67 106 0
-105 142 67 145 0
-105 142 106 145 0
-105 67 106 145 0
-106 -107 0
-106 -108 0
-107 -108 0
-106 -65 -104 0
-106 -65 -143 0
-106 -65 -68 0
-106 -65 -146 0
-106 -65 -71 0
-106 -65 -110 0
-106 -65 -149 0
-106 -104 -143 0
-106 -104 -68 0
-106 -104 -146 0
-106 -104 -71 0
-106 -104 -110 0
-106 -104 -149 0
-106 -143 -68 0
-106 -143 -146 0
-106 -143 -71 0
-106 -143 -110 0
-106 -143 -149 0
-106 -68 -146 0
-106 -68 -71 0
-106 -68 -110 0
-106 -68 -149 0
-106 -146 -71 0
-106 -146 -110 0
-106 -146 -149 0
-106 -71 -110 0
-106 -71 -149 0
-106 -110 -149 0
-106 65 104 143 68 146 71 110 149 0
-107 -66 -105 -144 -69 0
-107 -66 -105 -144 -147 0
-107 -66 -105 -144 -72 0
-107 -66 -105 -144 -111 0
-107 -66 -105 -144 -150 0
-107 -66 -105 -69 -147 0
-107 -66 -105 -69 -72 0
-107 -66 -105 -69 -111 0
-107 -66 -105 -69 -150 0
-107 -66 -105 -147 -72 0
-107 -66 -105 -147 -111 0
-107 -66 -105 -147 -150 0
-107 -66 -105 -72 -111 0
-107 -66 -105 -72 -150 0
-107 -66 -105 -111 -150 0
-107 -66 -144 -69 -147 0
-107 -66 -144 -69 -72 0
-107 -66 -144 -69 -111 0
-107 -66 -144 -69 -150 0
-107 -66 -144 -147 -72 0
-107 -66 -144 -147 -111 0
-107 -66 -144 -147 -150 0
-107 -66 -144 -72 -111 0
-107 -66 -144 -72 -150 0
-107 -66 -144 -111 -150 0
-107 -66 -69 -147 -72 0
-107 -66 -69 -147 -111 0
-107 -66 -69 -147 -150 0
-107 -66 -69 -72 -111 0
-107 -66 -69 -72 -150 0
-107 -66 -69 -111 -150 0
-107 -66 -147 -72 -111 0
-107 -66 -147 -72 -150 0
-107 -66 -147 -111 -150 0
-107 -66 -72 -111 -150 0
-107 -105 -144 -69 -147 0
-107 -105 -144 -69 -72 0
-107 -105 -144 -69 -111 0
-107 -105 -144 -69 -150 0
-107 -105 -144 -147 -72 0
-107 -105 -144 -147 -111 0
-107 -105 -144 -147 -150 0
-107 -105 -144 -72 -111 0
-107 -105 -144 -72 -150 0
-107 -105 -144 -111 -150 0
-107 -105 -69 -147 -72 0
-107 -105 -69 -147 -111 0
-107 -105 -69 -147 -150 0
-107 -105 -69 -72 -111 0
-107 -105 -69 -72 -150 0
-107 -105 -69 -111 -150 0
-107 -105 -147 -72 -111 0
-107 -105 -147 -72 -150 0
-107 -105 -147 -111 -150 0
-107 -105 -72 -111 -150 0
-107 -144 -69 -147 -72 0
-107 -144 -69 -147 -111 0
-107 -144 -69 -147 -150 0
-107 -144 -69 -72 -111 0
-107 -144 -69 -72 -150 0
-107 -144 -69 -111 -150 0
-107 -144 -147 -72 -111 0
-107 -144 -147 -72 -150 0
-107 -144 -147 -111 -150 0
-107 -144 -72 -111 -150 0
-107 -69 -147 -72 -111 0
-107 -69 -147 -72 -150 0
-107 -69 -147 -111 -150 0
-107 -69 -72 -111 -150 0
-107 -147 -72 -111 -150 0
-107 66 105 144 69 147 72 0
-107 66 105 144 69 147 111 0
-107 66 105 144 69 147 150 0
-107 66 105 144 69 72 111 0
-107 66 105 144 69 72 150 0
-107 66 105 144 69 111 150 0
-107 66 105 144 147 72 111 0
-107 66 105 144 147 72 150 0
-107 66 105 144 147 111 150 0
-107 66 105 144 72 111 150 0
-107 66 105 69 147 72 111 0
-107 66 105 69 147 72 150 0
-107 66 105 69 147 111 150 0
-107 66 105 69 72 111 150 0
-107 66 105 147 72 111 150 0
-107 66 144 69 147 72 111 0
-107 66 144 69 147 72 150 0
-107 66 144 69 147 111 150 0
-107 66 144 69 72 111 150 0
-107 66 144 147 72 111 150 0
-107 66 69 147 72 111 150 0
-107 105 144 69 147 72 111 0
-107 105 144 69 147 72 150 0
-107 105 144 69 147 111 150 0
-107 105 144 69 72 111 150 0
-107 105 144 147 72 111 150 0
-107 105 69 147 72 111 150 0
-107 144 69 147 72 111 150 0
-108 -64 -103 -142 -67 -145 -70 -109 0
-108 -64 -103 -142 -67 -145 -70 -148 0
-108 -64 -103 -142 -67 -145 -109 -148 0
-108 -64 -103 -142 -67 -70 -109 -148 0
-108 -64 -103 -142 -145 -70 -109 -148 0
-108 -64 -103 -67 -145 -70 -109 -148 0
-108 -64 -142 -67 -145 -70 -109 -148 0
-108 -103 -142 -67 -145 -70 -109 -148 0
-108 64 103 142 0
-108 64 103 67 0
-108 64 103 145 0
-108 64 103 70 0
-108 64 103 109 0
-108 64 103 148 0
-108 64 142 67 0
-108 64 142 145 0
-108 64 142 70 0
-108 64 142 109 0
-108 64 142 148 0
-108 64 67 145 0
-108 64 67 70 0
-108 64 67 109 0
-108 64 67 148 0
-108 64 145 70 0
-108 64 145 109 0
-108 64 145 148 0
-108 64 70 109 0
-108 64 70 148 0
-108 64 109 148 0
-108 103 142 67 0
-108 103 142 145 0
-108 103 142 70 0
-108 103 142 109 0
-108 103 142 148 0
-108 103 67 145 0
-108 103 67 70 0
-108 103 67 109 0
-108 103 67 148 0
-108 103 145 70 0
-108 103 145 109 0
-108 103 145 148 0
-108 103 70 109 0
-108 103 70 148 0
-108 103 109 148 0
-108 142 67 145 0
-108 142 67 70 0
-108 142 67 109 0
-108 142 67 148 0
-108 142 145 70 0
-108 142 145 109 0
-108 142 145 148 0
-108 142 70 109 0
-108 142 70 148 0
-108 142 109 148 0
-108 67 145 70 0
-108 67 145 109 0
-108 67 145 148 0
-108 67 70 109 0
-108 67 70 148 0
-108 67 109 148 0
-108 145 70 109 0
-108 145 70 148 0
-108 145 109 148 0
-108 70 109 148 0
-109 -110 0
-109 -111 0
-110 -111 0
-109 -68 -107 0
-109 -68 -146 0
-109 -68 -71 0
-109 -68 -149 0
-109 -68 -74 0
-109 -68 -113 0
-109 -68 -152 0
-109 -107 -146 0
-109 -107 -71 0
-109 -107 -149 0
-109 -107 -74 0
-109 -107 -113 0
-109 -107 -152 0
-109 -146 -71 0
-109 -146 -149 0
-109 -146 -74 0
-109 -146 -113 0
-109 -146 -152 0
-109 -71 -149 0
-109 -71 -74 0
-109 -71 -113 0
-109 -71 -152 0
-109 -149 -74 0
-109 -149 -113 0
-109 -149 -152 0
-109 -74 -113 0
-109 -74 -152 0
-109 -113 -152 0
-109 68 107 146 71 149 74 113 152 0
-110 -69 -108 -147 -72 0
-110 -69 -108 -147 -150 0
-110 -69 -108 -147 -75 0
-110 -69 -108 -147 -114 0
-110 -69 -108 -147 -153 0
-110 -69 -108 -72 -150 0
-110 -69 -108 -72 -75 0
-110 -69 -108 -72 -114 0
-110 -69 -108 -72 -153 0
-110 -69 -108 -150 -75 0
-110 -69 -108 -150 -114 0
-110 -69 -108 -150 -153 0
-110 -69 -108 -75 -114 0
-110 -69 -108 -75 -153 0
-110 -69 -108 -114 -153 0
-110 -69 -147 -72 -150 0
-110 -69 -147 -72 -75 0
-110 -69 -147 -72 -114 0
-110 -69 -147 -72 -153 0
-110 -69 -147 -150 -75 0
-110 -69 -147 -150 -114 0
-110 -69 -147 -150 -153 0
-110 -69 -147 -75 -114 0
-110 -69 -147 -75 -153 0
-110 -69 -147 -114 -153 0
-110 -69 -72 -150 -75 0
-110 -69 -72 -150 -114 0
-110 -69 -72 -150 -153 0
-110 -69 -72 -75 -114 0
-110 -69 -72 -75 -153 0
-110 -69 -72 -114 -153 0
-110 -69 -150 -75 -114 0
-110 -69 -150 -75 -153 0
-110 -69 -150 -114 -153 0
-110 -69 -75 -114 -153 0
-110 -108 -147 -72 -150 0
-110 -108 -147 -72 -75 0
-110 -108 -147 -72 -114 0
-110 -108 -147 -72 -153 0
-110 -108 -147 -150 -75 0
-110 -108 -147 -150 -114 0
-110 -108 -147 -150 -153 0
-110 -108 -147 -75 -114 0
-110 -108 -147 -75 -153 0
-110 -108 -147 -114 -153 0
-110 -108 -72 -150 -75 0
-110 -108 -72 -150 -114 0
-110 -108 -72 -150 -153 0
-110 -108 -72 -75 -114 0
-110 -108 -72 -75 -153 0
-110 -108 -72 -114 -153 0
-110 -108 -150 -75 -114 0
-110 -108 -150 -75 -153 0
-110 -108 -150 -114 -153 0
-110 -108 -75 -114 -153 0
-110 -147 -72 -150 -75 0
-110 -147 -72 -150 -114 0
-110 -147 -72 -150 -153 0
-110 -147 -72 -75 -114 0
-110 -147 -72 -75 -153 0
-110 -147 -72 -114 -153 0
-110 -147 -150 -75 -114 0
-110 -147 -150 -75 -153 0
-110 -147 -150 -114 -153 0
-110 -147 -75 -114 -153 0
-110 -72 -150 -75 -114 0
-110 -72 -150 -75 -153 0
-110 -72 -150 -114 -153 0
-110 -72 -75 -114 -153 0
-110 -150 -75 -114 -153 0
-110 69 108 147 72 150 75 0
-110 69 108 147 72 150 114 0
-110 69 108 147 72 150 153 0
-110 69 108 147 72 75 114 0
-110 69 108 147 72 75 153 0
-110 69 108 147 72 114 153 0
-110 69 108 147 150 75 114 0
-110 69 108 147 150 75 153 0
-110 69 108 147 150 114 153 0
-110 69 108 147 75 114 153 0
-110 69 108 72 150 75 114 0
-110 69 108 72 150 75 153 0
-110 69 108 72 150 114 153 0
-110 69 108 72 75 114 153 0
-110 69 108 150 75 114 153 0
-110 69 147 72 150 75 114 0
-110 69 147 72 150 75 153 0
-110 69 147 72 150 114 153 0
-110 69 147 72 75 114 153 0
-110 69 147 150 75 114 153 0
-110 69 72 150 75 114 153 0
-110 108 147 72 150 75 114 0
-110 108 147 72 150 75 153 0
-110 108 147 72 150 114 153 0
-110 108 147 72 75 114 153 0
-110 108 147 150 75 114 153 0
-110 108 72 150 75 114 153 0
-110 147 72 150 75 114 153 0
-111 -67 -106 -145 -70 -148 -73 -112 0
-111 -67 -106 -145 -70 -148 -73 -151 0
-111 -67 -106 -145 -70 -148 -112 -151 0
-111 -67 -106 -145 -70 -73 -112 -151 0
-111 -67 -106 -145 -148 -73 -112 -151 0
-111 -67 -106 -70 -148 -73 -112 -151 0
-111 -67 -145 -70 -148 -73 -112 -151 0
-111 -106 -145 -70 -148 -73 -112 -151 0
-111 67 106 145 0
-111 67 106 70 0
-111 67 106 148 0
-111 67 106 73 0
-111 67 106 112 0
-111 67 106 151 0
-111 67 145 70 0
-111 67 145 148 0
-111 67 145 73 0
-111 67 145 112 0
-111 67 145 151 0
-111 67 70 148 0
-111 67 70 73 0
-111 67 70 112 0
-111 67 70 151 0
-111 67 148 73 0
-111 67 148 112 0
-111 67 148 151 0
-111 67 73 112 0
-111 67 73 151 0
-111 67 112 151 0
-111 106 145 70 0
-111 106 145 148 0
-111 106 145 73 0
-111 106 145 112 0
-111 106 145 151 0
-111 106 70 148 0
-111 106 70 73 0
-111 106 70 112 0
-111 106 70 151 0
-111 106 148 73 0
-111 106 148 112 0
-111 106 148 151 0
-111 106 73 112 0
-111 106 73 151 0
-111 106 112 151 0
-111 145 70 148 0
-111 145 70 73 0
-111 145 70 112 0
-111 145 70 151 0
-111 145 148 73 0
-111 145 148 112 0
-111 145 148 151 0
-111 145 73 112 0
-111 145 73 151 0
-111 145 112 151 0
-111 70 148 73 0
-111 70 148 112 0
-111 70 148 151 0
-111 70 73 112 0
-111 70 73 151 0
-111 70 112 151 0
-111 148 73 112 0
-111 148 73 151 0
-111 148 112 151 0
-111 73 112 151 0
-112 -113 0
-112 -114 0
-113 -114 0
-112 -71 -110 0
-112 -71 -149 0
-112 -71 -74 0
-112 -71 -152 0
-112 -71 -77 0
-112 -71 -116 0
-112 -71 -155 0
-112 -110 -149 0
-112 -110 -74 0
-112 -110 -152 0
-112 -110 -77 0
-112 -110 -116 0
-112 -110 -155 0
-112 -149 -74 0
-112 -149 -152 0
-112 -149 -77 0
-112 -149 -116 0
-112 -149 -155 0
-112 -74 -152 0
-112 -74 -77 0
-112 -74 -116 0
-112 -74 -155 0
-112 -152 -77 0
-112 -152 -116 0
-112 -152 -155 0
-112 -77 -116 0
-112 -77 -155 0
-112 -116 -155 0
-112 71 110 149 74 152 77 116 155 0
-113 -72 -111 -150 -75 0
-113 -72 -111 -150 -153 0
-113 -72 -111 -150 -78 0
-113 -72 -111 -150 -117 0
-113 -72 -111 -150 -156 0
-113 -72 -111 -75 -153 0
-113 -72 -111 -75 -78 0
-113 -72 -111 -75 -117 0
-113 -72 -111 -75 -156 0
-113 -72 -111 -153 -78 0
-113 -72 -111 -153 -117 0
-113 -72 -111 -153 -156 0
-113 -72 -111 -78 -117 0
-113 -72 -111 -78 -156 0
-113 -72 -111 -117 -156 0
-113 -72 -150 -75 -153 0
-113 -72 -150 -75 -78 0
-113 -72 -150 -75 -117 0
-113 -72 -150 -75 -156 0
-113 -72 -150 -153 -78 0
-113 -72 -150 -153 -117 0
-113 -72 -150 -153 -156 0
-113 -72 -150 -78 -117 0
-113 -72 -150 -78 -156 0
-113 -72 -150 -117 -156 0
-113 -72 -75 -153 -78 0
-113 -72 -75 -153 -117 0
-113 -72 -75 -153 -156 0
-113 -72 -75 -78 -117 0
-113 -72 -75 -78 -156 0
-113 -72 -75 -117 -156 0
-113 -72 -153 -78 -117 0
-113 -72 -153 -78 -156 0
-113 -72 -153 -117 -156 0
-113 -72 -78 -117 -156 0
-113 -111 -150 -75 -153 0
-113 -111 -150 -75 -78 0
-113 -111 -150 -75 -117 0
-113 -111 -150 -75 -156 0
-113 -111 -150 -153 -78 0
-113 -111 -150 -153 -117 0
-113 -111 -150 -153 -156 0
-113 -111 -150 -78 -117 0
-113 -111 -150 -78 -156 0
-113 -111 -150 -117 -156 0
-113 -111 -75 -153 -78 0
-113 -111 -75 -153 -117 0
-113 -111 -75 -153 -156 0
-113 -111 -75 -78 -117 0
-113 -111 -75 -78 -156 0
-113 -111 -75 -117 -156 0
-113 -111 -153 -78 -117 0
-113 -111 -153 -78 -156 0
-113 -111 -153 -117 -156 0
-113 -111 -78 -117 -156 0
-113 -150 -75 -153 -78 0
-113 -150 -75 -153 -117 0
-113 -150 -75 -153 -156 0
-113 -150 -75 -78 -117 0
-113 -150 -75 -78 -156 0
-113 -150 -75 -117 -156 0
-113 -150 -153 -78 -117 0
-113 -150 -153 -78 -156 0
-113 -150 -153 -117 -156 0
-113 -150 -78 -117 -156 0
-113 -75 -153 -78 -117 0
-113 -75 -153 -78 -156 0
-113 -75 -153 -117 -156 0
-113 -75 -78 -117 -156 0
-113 -153 -78 -117 -156 0
-113 72 111 150 75 153 78 0
-113 72 111 150 75 153 117 0
-113 72 111 150 75 153 156 0
-113 72 111 150 75 78 117 0
-113 72 111 150 75 78 156 0
-113 72 111 150 75 117 156 0
-113 72 111 150 153 78 117 0
-113 72 111 150 153 78 156 0
-113 72 111 150 153 117 156 0
-113 72 111 150 78 117 156 0
-113 72 111 75 153 78 117 0
-113 72 111 75 153 78 156 0
-113 72 111 75 153 117 156 0
-113 72 111 75 78 117 156 0
-113 72 111 153 78 117 156 0
-113 72 150 75 153 78 117 0
-113 72 150 75 153 78 156 0
-113 72 150 75 153 117 156 0
-113 72 150 75 78 117 156 0
-113 72 150 153 78 117 156 0
-113 72 75 153 78 117 156 0
-113 111 150 75 153 78 117 0
-113 111 150 75 153 78 156 0
-113 111 150 75 153 117 156 0
-113 111 150 75 78 117 156 0
-113 111 150 153 78 117 156 0
-113 111 75 153 78 117 156 0
-113 150 75 153 78 117 156 0
-114 -70 -109 -148 -73 -151 -76 -115 0
-114 -70 -109 -148 -73 -151 -76 -154 0
-114 -70 -109 -148 -73 -151 -115 -154 0
-114 -70 -109 -148 -73 -76 -115 -154 0
-114 -70 -109 -148 -151 -76 -115 -154 0
-114 -70 -109 -73 -151 -76 -115 -154 0
-114 -70 -148 -73 -151 -76 -115 -154 0
-114 -109 -148 -73 -151 -76 -115 -154 0
-114 70 109 148 0
-114 70 109 73 0
-114 70 109 151 0
-114 70 109 76 0
-114 70 109 115 0
-114 70 109 154 0
-114 70 148 73 0
-114 70 148 151 0
-114 70 148 76 0
-114 70 148 115 0
-114 70 148 154 0
-114 70 73 151 0
-114 70 73 76 0
-114 70 73 115 0
-114 70 73 154 0
-114 70 151 76 0
-114 70 151 115 0
-114 70 151 154 0
-114 70 76 115 0
-114 70 76 154 0
-114 70 115 154 0
-114 109 148 73 0
-114 109 148 151 0
-114 109 148 76 0
-114 109 148 115 0
-114 109 148 154 0
-114 109 73 151 0
-114 109 73 76 0
-114 109 73 115 0
-114 109 73 154 0
-114 109 151 76 0
-114 109 151 115 0
-114 109 151 154 0
-114 109 76 115 0
-114 109 76 154 0
-114 109 115 154 0
-114 148 73 151 0
-114 148 73 76 0
-114 148 73 115 0
-114 148 73 154 0
-114 148 151 76 0
-114 148 151 115 0
-114 148 151 154 0
-114 148 76 115 0
-114 148 76 154 0
-114 148 115 154 0
-114 73 151 76 0
-114 73 151 115 0
-114 73 151 154 0
-114 73 76 115 0
-114 73 76 154 0
-114 73 115 154 0
-114 151 76 115 0
-114 151 76 154 0
-114 151 115 154 0
-114 76 115 154 0
-115 -116 0
-115 -117 0
-116 -117 0
-118 -119 0
-118 -120 0
-119 -120 0
-121 -122 0
-121 -123 0
-122 -123 0
-121 -80 -119 0
-121 -80 -158 0
-121 -80 -83 0
-121 -80 -161 0
-121 -80 -86 0
-121 -80 -125 0
-121 -80 -164 0
-121 -119 -158 0
-121 -119 -83 0
-121 -119 -161 0
-121 -119 -86 0
-121 -119 -125 0
-121 -119 -164 0
-121 -158 -83 0
-121 -158 -161 0
-121 -158 -86 0
-121 -158 -125 0
-121 -158 -164 0
-121 -83 -161 0
-121 -83 -86 0
-121 -83 -125 0
-121 -83 -164 0
-121 -161 -86 0
-121 -161 -125 0
-121 -161 -164 0
-121 -86 -125 0
-121 -86 -164 0
-121 -125 -164 0
-121 80 119 158 83 161 86 125 164 0
-122 -81 -120 -159 -84 0
-122 -81 -120 -159 -162 0
-122 -81 -120 -159 -87 0
-122 -81 -120 -159 -126 0
-122 -81 -120 -159 -165 0
-122 -81 -120 -84 -162 0
-122 -81 -120 -84 -87 0
-122 -81 -120 -84 -126 0
-122 -81 -120 -84 -165 0
-122 -81 -120 -162 -87 0
-122 -81 -120 -162 -126 0
-122 -81 -120 -162 -165 0
-122 -81 -120 -87 -126 0
-122 -81 -120 -87 -165 0
-122 -81 -120 -126 -165 0
-122 -81 -159 -84 -162 0
-122 -81 -159 -84 -87 0
-122 -81 -159 -84 -126 0
-122 -81 -159 -84 -165 0
-122 -81 -159 -162 -87 0
-122 -81 -159 -162 -126 0
-122 -81 -159 -162 -165 0
-122 -81 -159 -87 -126 0
-122 -81 -159 -87 -165 0
-122 -81 -159 -126 -165 0
-122 -81 -84 -162 -87 0
-122 -81 -84 -162 -126 0
-122 -81 -84 -162 -165 0
-122 -81 -84 -87 -126 0
-122 -81 -84 -87 -165 0
-122 -81 -84 -126 -165 0
-122 -81 -162 -87 -126 0
-122 -81 -162 -87 -165 0
-122 -81 -162 -126 -165 0
-122 -81 -87 -126 -165 0
-122 -120 -159 -84 -162 0
-122 -120 -159 -84 -87 0
-122 -120 -159 -84 -126 0
-122 -120 -159 -84 -165 0
-122 -120 -159 -162 -87 0
-122 -120 -159 -162 -126 0
-122 -120 -159 -162 -165 0
-122 -120 -159 -87 -126 0
-122 -120 -159 -87 -165 0
-122 -120 -159 -126 -165 0
-122 -120 -84 -162 -87 0
-122 -120 -84 -162 -126 0
-122 -120 -84 -162 -165 0
-122 -120 -84 -87 -126 0
-122 -120 -84 -87 -165 0
-122 -120 -84 -126 -165 0
-122 -120 -162 -87 -126 0
-122 -120 -162 -87 -165 0
-122 -120 -162 -126 -165 0
-122 -120 -87 -126 -165 0
-122 -159 -84 -162 -87 0
-122 -159 -84 -162 -126 0
-122 -159 -84 -162 -165 0
-122 -159 -84 -87 -126 0
-122 -159 -84 -87 -165 0
-122 -159 -84 -126 -165 0
-122 -159 -162 -87 -126 0
-122 -159 -162 -87 -165 0
-122 -159 -162 -126 -165 0
-122 -159 -87 -126 -165 0
-122 -84 -162 -87 -126 0
-122 -84 -162 -87 -165 0
-122 -84 -162 -126 -165 0
-122 -84 -87 -126 -165 0
-122 -162 -87 -126 -165 0
-122 81 120 159 84 162 87 0
-122 81 120 159 84 162 126 0
-122 81 120 159 84 162 165 0
-122 81 120 159 84 87 126 0
-122 81 120 159 84 87 165 0
-122 81 120 159 84 126 165 0
-122 81 120 159 162 87 126 0
-122 81 120 159 162 87 165 0
-122 81 120 159 162 126 165 0
-122 81 120 159 87 126 165 0
-122 81 120 84 162 87 126 0
-122 81 120 84 162 87 165 0
-122 81 120 84 162 126 165 0
-122 81 120 84 87 126 165 0
-122 81 120 162 87 126 165 0
-122 81 159 84 162 87 126 0
-122 81 159 84 162 87 165 0
-122 81 159 84 162 126 165 0
-122 81 159 84 87 126 165 0
-122 81 159 162 87 126 165 0
-122 81 84 162 87 126 165 0
-122 120 159 84 162 87 126 0
-122 120 159 84 162 87 165 0
-122 120 159 84 162 126 165 0
-122 120 159 84 87 126 165 0
-122 120 159 162 87 126 165 0
-122 120 84 162 87 126 165 0
-122 159 84 162 87 126 165 0
-123 -79 -118 -157 -82 -160 -85 -124 0
-123 -79 -118 -157 -82 -160 -85 -163 0
-123 -79 -118 -157 -82 -160 -124 -163 0
-123 -79 -118 -157 -82 -85 -124 -163 0
-123 -79 -118 -157 -160 -85 -124 -163 0
-123 -79 -118 -82 -160 -85 -124 -163 0
-123 -79 -157 -82 -160 -85 -124 -163 0
-123 -118 -157 -82 -160 -85 -124 -163 0
-123 79 118 157 0
-123 79 118 82 0
-123 79 118 160 0
-123 79 118 85 0
-123 79 118 124 0
-123 79 118 163 0
-123 79 157 82 0
-123 79 157 160 0
-123 79 157 85 0
-123 79 157 124 0
-123 79 157 163 0
-123 79 82 160 0
-123 79 82 85 0
-123 79 82 124 0
-123 79 82 163 0
-123 79 160 85 0
-123 79 160 124 0
-123 79 160 163 0
-123 79 85 124 0
-123 79 85 163 0
-123 79 124 163 0
-123 118 157 82 0
-123 118 157 160 0
-123 118 157 85 0
-123 118 157 124 0
-123 118 157 163 0
-123 118 82 160 0
-123 118 82 85 0
-123 118 82 124 0
-123 118 82 163 0
-123 118 160 85 0
-123 118 160 124 0
-123 118 160 163 0
-123 118 85 124 0
-123 118 85 163 0
-123 118 124 163 0
-123 157 82 160 0
-123 157 82 85 0
-123 157 82 124 0
-123 157 82 163 0
-123 157 160 85 0
-123 157 160 124 0
-123 157 160 163 0
-123 157 85 124 0
-123 157 85 163 0
-123 157 124 163 0
-123 82 160 85 0
-123 82 160 124 0
-123 82 160 163 0
-123 82 85 124 0
-123 82 85 163 0
-123 82 124 163 0
-123 160 85 124 0
-123 160 85 163 0
-123 160 124 163 0
-123 85 124 163 0
-124 -125 0
-124 -126 0
-125 -126 0
-124 -83 -122 0
-124 -83 -161 0
-124 -83 -86 0
-124 -83 -164 0
-124 -83 -89 0
-124 -83 -128 0
-124 -83 -167 0
-124 -122 -161 0
-124 -122 -86 0
-124 -122 -164 0
-124 -122 -89 0
-124 -122 -128 0
-124 -122 -167 0
-124 -161 -86 0
-124 -161 -164 0
-124 -161 -89 0
-124 -161 -128 0
-124 -161 -167 0
-124 -86 -164 0
-124 -86 -89 0
-124 -86 -128 0
-124 -86 -167 0
-124 -164 -89 0
-124 -164 -128 0
-124 -164 -167 0
-124 -89 -128 0
-124 -89 -167 0
-124 -128 -167 0
-124 83 122 161 86 164 89 128 167 0
-125 -84 -123 -162 -87 0
-125 -84 -123 -162 -165 0
-125 -84 -123 -162 -90 0
-125 -84 -123 -162 -129 0
-125 -84 -123 -162 -168 0
-125 -84 -123 -87 -165 0
-125 -84 -123 -87 -90 0
-125 -84 -123 -87 -129 0
-125 -84 -123 -87 -168 0
-125 -84 -123 -165 -90 0
-125 -84 -123 -165 -129 0
-125 -84 -123 -165 -168 0
-125 -84 -123 -90 -129 0
-125 -84 -123 -90 -168 0
-125 -84 -123 -129 -168 0
-125 -84 -162 -87 -165 0
-125 -84 -162 -87 -90 0
-125 -84 -162 -87 -129 0
-125 -84 -162 -87 -168 0
-125 -84 -162 -165 -90 0
-125 -84 -162 -165 -129 0
-125 -84 -162 -165 -168 0
-125 -84 -162 -90 -129 0
-125 -84 -162 -90 -168 0
-125 -84 -162 -129 -168 0
-125 -84 -87 -165 -90 0
-125 -84 -87 -165 -129 0
-125 -84 -87 -165 -168 0
-125 -84 -87 -90 -129 0
-125 -84 -87 -90 -168 0
-125 -84 -87 -129 -168 0
-125 -84 -165 -90 -129 0
-125 -84 -165 -90 -168 0
-125 -84 -165 -129 -168 0
-125 -84 -90 -129 -168 0
-125 -123 -162 -87 -165 0
-125 -123 -162 -87 -90 0
-125 -123 -162 -87 -129 0
-125 -123 -162 -87 -168 0
-125 -123 -162 -165 -90 0
-125 -123 -162 -165 -129 0
-125 -123 -162 -165 -168 0
-125 -123 -162 -90 -129 0
-125 -123 -162 -90 -168 0
-125 -123 -162 -129 -168 0
-125 -123 -87 -165 -90 0
-125 -123 -87 -165 -129 0
-125 -123 -87 -165 -168 0
-125 -123 -87 -90 -129 0
-125 -123 -87 -90 -168 0
-125 -123 -87 -129 -168 0
-125 -123 -165 -90 -129 0
-125 -123 -165 -90 -168 0
-125 -123 -165 -129 -168 0
-125 -123 -90 -129 -168 0
-125 -162 -87 -165 -90 0
-125 -162 -87 -165 -129 0
-125 -162 -87 -165 -168 0
-125 -162 -87 -90 -129 0
-125 -162 -87 -90 -168 0
-125 -162 -87 -129 -168 0
-125 -162 -165 -90 -129 0
-125 -162 -165 -90 -168 0
-125 -162 -165 -129 -168 0
-125 -162 -90 -129 -168 0
-125 -87 -165 -90 -129 0
-125 -87 -165 -90 -168 0
-125 -87 -165 -129 -168 0
-125 -87 -90 -129 -168 0
-125 -165 -90 -129 -168 0
-125 84 123 162 87 165 90 0
-125 84 123 162 87 165 129 0
-125 84 123 162 87 165 168 0
-125 84 123 162 87 90 129 0
-125 84 123 162 87 90 168 0
-125 84 123 162 87 129 168 0
-125 84 123 162 165 90 129 0
-125 84 123 162 165 90 168 0
-125 84 123 162 165 129 168 0
-125 84 123 162 90 129 168 0
-125 84 123 87 165 90 129 0
-125 84 123 87 165 90 168 0
-125 84 123 87 165 129 168 0
-125 84 123 87 90 129 168 0
-125 84 123 165 90 129 168 0
-125 84 162 87 165 90 129 0
-125 84 162 87 165 90 168 0
-125 84 162 87 165 129 168 0
-125 84 162 87 90 129 168 0
-125 84 162 165 90 129 168 0
-125 84 87 165 90 129 168 0
-125 123 162 87 165 90 129 0
-125 123 162 87 165 90 168 0
-125 123 162 87 165 129 168 0
-125 123 162 87 90 129 168 0
-125 123 162 165 90 129 168 0
-125 123 87 165 90 129 168 0
-125 162 87 165 90 129 168 0
-126 -82 -121 -160 -85 -163 -88 -127 0
-126 -82 -121 -160 -85 -163 -88 -166 0
-126 -82 -121 -160 -85 -163 -127 -166 0
-126 -82 -121 -160 -85 -88 -127 -166 0
-126 -82 -121 -160 -163 -88 -127 -166 0
-126 -82 -121 -85 -163 -88 -127 -166 0
-126 -82 -160 -85 -163 -88 -127 -166 0
-126 -121 -160 -85 -163 -88 -127 -166 0
-126 82 121 160 0
-126 82 121 85 0
-126 82 121 163 0
-126 82 121 88 0
-126 82 121 127 0
-126 82 121 166 0
-126 82 160 85 0
-126 82 160 163 0
-126 82 160 88 0
-126 82 160 127 0
-126 82 160 166 0
-126 82 85 163 0
-126 82 85 88 0
-126 82 85 127 0
-126 82 85 166 0
-126 82 163 88 0
-126 82 163 127 0
-126 82 163 166 0
-126 82 88 127 0
-126 82 88 166 0
-126 82 127 166 0
-126 121 160 85 0
-126 121 160 163 0
-126 121 160 88 0
-126 121 160 127 0
-126 121 160 166 0
-126 121 85 163 0
-126 121 85 88 0
-126 121 85 127 0
-126 121 85 166 0
-126 121 163 88 0
-126 121 163 127 0
-126 121 163 166 0
-126 121 88 127 0
-126 121 88 166 0
-126 121 127 166 0
-126 160 85 163 0
-126 160 85 88 0
-126 160 85 127 0
-126 160 85 166 0
-126 160 163 88 0
-126 160 163 127 0
-126 160 163 166 0
-126 160 88 127 0
-126 160 88 166 0
-126 160 127 166 0
-126 85 163 88 0
-126 85 163 127 0
-126 85 163 166 0
-126 85 88 127 0
-126 85 88 166 0
-126 85 127 166 0
-126 163 88 127 0
-126 163 88 166 0
-126 163 127 166 0
-126 88 127 166 0
-127 -128 0
-127 -129 0
-128 -129 0
-127 -86 -125 0
-127 -86 -164 0
-127 -86 -89 0
-127 -86 -167 0
-127 -86 -92 0
-127 -86 -131 0
-127 -86 -170 0
-127 -125 -164 0
-127 -125 -89 0
-127 -125 -167 0
-127 -125 -92 0
-127 -125 -131 0
-127 -125 -170 0
-127 -164 -89 0
-127 -164 -167 0
-127 -164 -92 0
-127 -164 -131 0
-127 -164 -170 0
-127 -89 -167 0
-127 -89 -92 0
-127 -89 -131 0
-127 -89 -170 0
-127 -167 -92 0
-127 -167 -131 0
-127 -167 -170 0
-127 -92 -131 0
-127 -92 -170 0
-127 -131 -170 0
-127 86 125 164 89 167 92 131 170 0
-128 -87 -126 -165 -90 0
-128 -87 -126 -165 -168 0
-128 -87 -126 -165 -93 0
-128 -87 -126 -165 -132 0
-128 -87 -126 -165 -171 0
-128 -87 -126 -90 -168 0
-128 -87 -126 -90 -93 0
-128 -87 -126 -90 -132 0
-128 -87 -126 -90 -171 0
-128 -87 -126 -168 -93 0
-128 -87 -126 -168 -132 0
-128 -87 -126 -168 -171 0
-128 -87 -126 -93 -132 0
-128 -87 -126 -93 -171 0
-128 -87 -126 -132 -171 0
-128 -87 -165 -90 -168 0
-128 -87 -165 -90 -93 0
-128 -87 -165 -90 -132 0
-128 -87 -165 -90 -171 0
-128 -87 -165 -168 -93 0
-128 -87 -165 -168 -132 0
-128 -87 -165 -168 -171 0
-128 -87 -165 -93 -132 0
-128 -87 -165 -93 -171 0
-128 -87 -165 -132 -171 0
-128 -87 -90 -168 -93 0
-128 -87 -90 -168 -132 0
-128 -87 -90 -168 -171 0
-128 -87 -90 -93 -132 0
-128 -87 -90 -93 -171 0
-128 -87 -90 -132 -171 0
-128 -87 -168 -93 -132 0
-128 -87 -168 -93 -171 0
-128 -87 -168 -132 -171 0
-128 -87 -93 -132 -171 0
-128 -126 -165 -90 -168 0
-128 -126 -165 -90 -93 0
-128 -126 -165 -90 -132 0
-128 -126 -165 -90 -171 0
-128 -126 -165 -168 -93 0
-128 -126 -165 -168 -132 0
-128 -126 -165 -168 -171 0
-128 -126 -165 -93 -132 0
-128 -126 -165 -93 -171 0
-128 -126 -165 -132 -171 0
-128 -126 -90 -168 -93 0
-128 -126 -90 -168 -132 0
-128 -126 -90 -168 -171 0
-128 -126 -90 -93 -132 0
-128 -126 -90 -93 -171 0
-128 -126 -90 -132 -171 0
-128 -126 -168 -93 -132 0
-128 -126 -168 -93 -171 0
-128 -126 -168 -132 -171 0
-128 -126 -93 -132 -171 0
-128 -165 -90 -168 -93 0
-128 -165 -90 -168 -132 0
-128 -165 -90 -168 -171 0
-128 -165 -90 -93 -132 0
-128 -165 -90 -93 -171 0
-128 -165 -90 -132 -171 0
-128 -165 -168 -93 -132 0
-128 -165 -168 -93 -171 0
-128 -165 -168 -132 -171 0
-128 -165 -93 -132 -171 0
-128 -90 -168 -93 -132 0
-128 -90 -168 -93 -171 0
-128 -90 -168 -132 -171 0
-128 -90 -93 -132 -171 0
-128 -168 -93 -132 -171 0
-128 87 126 165 90 168 93 0
-128 87 126 165 90 168 132 0
-128 87 126 165 90 168 171 0
-128 87 126 165 90 93 132 0
-128 87 126 165 90 93 171 0
-128 87 126 165 90 132 171 0
-128 87 126 165 168 93 132 0
-128 87 126 165 168 93 171 0
-128 87 126 165 168 132 171 0
-128 87 126 165 93 132 171 0
-128 87 126 90 168 93 132 0
-128 87 126 90 168 93 171 0
-128 87 126 90 168 132 171 0
-128 87 126 90 93 132 171 0
-128 87 126 168 93 132 171 0
-128 87 165 90 168 93 132 0
-128 87 165 90 168 93 171 0
-128 87 165 90 168 132 171 0
-128 87 165 90 93 132 171 0
-128 87 165 168 93 132 171 0
-128 87 90 168 93 132 171 0
-128 126 165 90 168 93 132 0
-128 126 165 90 168 93 171 0
-128 126 165 90 168 132 171 0
-128 126 165 90 93 132 171 0
-128 126 165 168 93 132 171 0
-128 126 90 168 93 132 171 0
-128 165 90 168 93 132 171 0
-129 -85 -124 -163 -88 -166 -91 -130 0
-129 -85 -124 -163 -88 -166 -91 -169 0
-129 -85 -124 -163 -88 -166 -130 -169 0
-129 -85 -124 -163 -88 -91 -130 -169 0
-129 -85 -124 -163 -166 -91 -130 -169 0
-129 -85 -124 -88 -166 -91 -130 -169 0
-129 -85 -163 -88 -166 -91 -130 -169 0
-129 -124 -163 -88 -166 -91 -130 -169 0
-129 85 124 163 0
-129 85 124 88 0
-129 85 124 166 0
-129 85 124 91 0
-129 85 124 130 0
-129 85 124 169 0
-129 85 163 88 0
-129 85 163 166 0
-129 85 163 91 0
-129 85 163 130 0
-129 85 163 169 0
-129 85 88 166 0
-129 85 88 91 0
-129 85 88 130 0
-129 85 88 169 0
-129 85 166 91 0
-129 85 166 130 0
-129 85 166 169 0
-129 85 91 130 0
-129 85 91 169 0
-129 85 130 169 0
-129 124 163 88 0
-129 124 163 166 0
-129 124 163 91 0
-129 124 163 130 0
-129 124 163 169 0
-129 124 88 166 0
-129 124 88 91 0
-129 124 88 130 0
-129 124 88 169 0
-129 124 166 91 0
-129 124 166 130 0
-129 124 166 169 0
-129 124 91 130 0
-129 124 91 169 0
-129 124 130 169 0
-129 163 88 166 0
-129 163 88 91 0
-129 163 88 130 0
-129 163 88 169 0
-129 163 166 91 0
-129 163 166 130 0
-129 163 166 169 0
-129 163 91 130 0
-129 163 91 169 0
-129 163 130 169 0
-129 88 166 91 0
-129 88 166 130 0
-129 88 166 169 0
-129 88 91 130 0
-129 88 91 169 0
-129 88 130 169 0
-129 166 91 130 0
-129 166 91 169 0
-129 166 130 169 0
-129 91 130 169 0
-130 -131 0
-130 -132 0
-131 -132 0
-130 -89 -128 0
-130 -89 -167 0
-130 -89 -92 0
-130 -89 -170 0
-130 -89 -95 0
-130 -89 -134 0
-130 -89 -173 0
-130 -128 -167 0
-130 -128 -92 0
-130 -128 -170 0
-130 -128 -95 0
-130 -128 -134 0
-130 -128 -173 0
-130 -167 -92 0
-130 -167 -170 0
-130 -167 -95 0
-130 -167 -134 0
-130 -167 -173 0
-130 -92 -170 0
-130 -92 -95 0
-130 -92 -134 0
-130 -92 -173 0
-130 -170 -95 0
-130 -170 -134 0
-130 -170 -173 0
-130 -95 -134 0
-130 -95 -173 0
-130 -134 -173 0
-130 89 128 167 92 170 95 134 173 0
-131 -90 -129 -168 -93 0
-131 -90 -129 -168 -171 0
-131 -90 -129 -168 -96 0
-131 -90 -129 -168 -135 0
-131 -90 -129 -168 -174 0
-131 -90 -129 -93 -171 0
-131 -90 -129 -93 -96 0
-131 -90 -129 -93 -135 0
-131 -90 -129 -93 -174 0
-131 -90 -129 -171 -96 0
-131 -90 -129 -171 -135 0
-131 -90 -129 -171 -174 0
-131 -90 -129 -96 -135 0
-131 -90 -129 -96 -174 0
-131 -90 -129 -135 -174 0
-131 -90 -168 -93 -171 0
-131 -90 -168 -93 -96 0
-131 -90 -168 -93 -135 0
-131 -90 -168 -93 -174 0
-131 -90 -168 -171 -96 0
-131 -90 -168 -171 -135 0
-131 -90 -168 -171 -174 0
-131 -90 -168 -96 -135 0
-131 -90 -168 -96 -174 0
-131 -90 -168 -135 -174 0
-131 -90 -93 -171 -96 0
-131 -90 -93 -171 -135 0
-131 -90 -93 -171 -174 0
-131 -90 -93 -96 -135 0
-131 -90 -93 -96 -174 0
-131 -90 -93 -135 -174 0
-131 -90 -171 -96 -135 0
-131 -90 -171 -96 -174 0
-131 -90 -171 -135 -174 0
-131 -90 -96 -135 -174 0
-131 -129 -168 -93 -171 0
-131 -129 -168 -93 -96 0
-131 -129 -168 -93 -135 0
-131 -129 -168 -93 -174 0
-131 -129 -168 -171 -96 0
-131 -129 -168 -171 -135 0
-131 -129 -168 -171 -174 0
-131 -129 -168 -96 -135 0
-131 -129 -168 -96 -174 0
-131 -129 -168 -135 -174 0
-131 -129 -93 -171 -96 0
-131 -129 -93 -171 -135 0
-131 -129 -93 -171 -174 0
-131 -129 -93 -96 -135 0
-131 -129 -93 -96 -174 0
-131 -129 -93 -135 -174 0
-131 -129 -171 -96 -135 0
-131 -129 -171 -96 -174 0
-131 -129 -171 -135 -174 0
-131 -129 -96 -135 -174 0
-131 -168 -93 -171 -96 0
-131 -168 -93 -171 -135 0
-131 -168 -93 -171 -174 0
-131 -168 -93 -96 -135 0
-131 -168 -93 -96 -174 0
-131 -168 -93 -135 -174 0
-131 -168 -171 -96 -135 0
-131 -168 -171 -96 -174 0
-131 -168 -171 -135 -174 0
-131 -168 -96 -135 -174 0
-131 -93 -171 -96 -135 0
-131 -93 -171 -96 -174 0
-131 -93 -171 -135 -174 0
-131 -93 -96 -135 -174 0
-131 -171 -96 -135 -174 0
-131 90 129 168 93 171 96 0
-131 90 129 168 93 171 135 0
-131 90 129 168 93 171 174 0
-131 90 129 168 93 96 135 0
-131 90 129 168 93 96 174 0
-131 90 129 168 93 135 174 0
-131 90 129 168 171 96 135 0
-131 90 129 168 171 96 174 0
-131 90 129 168 171 135 174 0
-131 90 129 168 96 135 174 0
-131 90 129 93 171 96 135 0
-131 90 129 93 171 96 174 0
-131 90 129 93 171 135 174 0
-131 90 129 93 96 135 174 0
-131 90 129 171 96 135 174 0
-131 90 168 93 171 96 135 0
-131 90 168 93 171 96 174 0
-131 90 168 93 171 135 174 0
-131 90 168 93 96 135 174 0
-131 90 168 171 96 135 174 0
-131 90 93 171 96 135 174 0
-131 129 168 93 171 96 135 0
-131 129 168 93 171 96 174 0
-131 129 168 93 171 135 174 0
-131 129 168 93 96 135 174 0
-131 129 168 171 96 135 174 0
-131 129 93 171 96 135 174 0
-131 168 93 171 96 135 174 0
-132 -88 -127 -166 -91 -169 -94 -133 0
-132 -88 -127 -166 -91 -169 -94 -172 0
-132 -88 -127 -166 -91 -169 -133 -172 0
-132 -88 -127 -166 -91 -94 -133 -172 0
-132 -88 -127 -166 -169 -94 -133 -172 0
-132 -88 -127 -91 -169 -94 -133 -172 0
-132 -88 -166 -91 -169 -94 -133 -172 0
-132 -127 -166 -91 -169 -94 -133 -172 0
-132 88 127 166 0
-132 88 127 91 0
-132 88 127 169 0
-132 88 127 94 0
-132 88 127 133 0
-132 88 127 172 0
-132 88 166 91 0
-132 88 166 169 0
-132 88 166 94 0
-132 88 166 133 0
-132 88 166 172 0
-132 88 91 169 0
-132 88 91 94 0
-132 88 91 133 0
-132 88 91 172 0
-132 88 169 94 0
-132 88 169 133 0
-132 88 169 172 0
-132 88 94 133 0
-132 88 94 172 0
-132 88 133 172 0
-132 127 166 91 0
-132 127 166 169 0
-132 127 166 94 0
-132 127 166 133 0
-132 127 166 172 0
-132 127 91 169 0
-132 127 91 94 0
-132 127 91 133 0
-132 127 91 172 0
-132 127 169 94 0
-132 127 169 133 0
-132 127 169 172 0
-132 127 94 133 0
-132 127 94 172 0
-132 127 133 172 0
-132 166 91 169 0
-132 166 91 94 0
-132 166 91 133 0
-132 166 91 172 0
-132 166 169 94 0
-132 166 169 133 0
-132 166 169 172 0
-132 166 94 133 0
-132 166 94 172 0
-132 166 133 172 0
-132 91 169 94 0
-132 91 169 133 0
-132 91 169 172 0
-132 91 94 133 0
-132 91 94 172 0
-132 91 133 172 0
-132 169 94 133 0
-132 169 94 172 0
-132 169 133 172 0
-132 94 133 172 0
-133 -134 0
-133 -135 0
-134 -135 0
-133 -92 -131 0
-133 -92 -170 0
-133 -92 -95 0
-133 -92 -173 0
-133 -92 -98 0
-133 -92 -137 0
-133 -92 -176 0
-133 -131 -170 0
-133 -131 -95 0
-133 -131 -173 0
-133 -131 -98 0
-133 -131 -137 0
-133 -131 -176 0
-133 -170 -95 0
-133 -170 -173 0
-133 -170 -98 0
-133 -170 -137 0
-133 -170 -176 0
-133 -95 -173 0
-133 -95 -98 0
-133 -95 -137 0
-133 -95 -176 0
-133 -173 -98 0
-133 -173 -137 0
-133 -173 -176 0
-133 -98 -137 0
-133 -98 -176 0
-133 -137 -176 0
-133 92 131 170 95 173 98 137 176 0
-134 -93 -132 -171 -96 0
-134 -93 -132 -171 -174 0
-134 -93 -132 -171 -99 0
-134 -93 -132 -171 -138 0
-134 -93 -132 -171 -177 0
-134 -93 -132 -96 -174 0
-134 -93 -132 -96 -99 0
-134 -93 -132 -96 -138 0
-134 -93 -132 -96 -177 0
-134 -93 -132 -174 -99 0
-134 -93 -132 -174 -138 0
-134 -93 -132 -174 -177 0
-134 -93 -132 -99 -138 0
-134 -93 -132 -99 -177 0
-134 -93 -132 -138 -177 0
-134 -93 -171 -96 -174 0
-134 -93 -171 -96 -99 0
-134 -93 -171 -96 -138 0
-134 -93 -171 -96 -177 0
-134 -93 -171 -174 -99 0
-134 -93 -171 -174 -138 0
-134 -93 -171 -174 -177 0
-134 -93 -171 -99 -138 0
-134 -93 -171 -99 -177 0
-134 -93 -171 -138 -177 0
-134 -93 -96 -174 -99 0
-134 -93 -96 -174 -138 0
-134 -93 -96 -174 -177 0
-134 -93 -96 -99 -138 0
-134 -93 -96 -99 -177 0
-134 -93 -96 -138 -177 0
-134 -93 -174 -99 -138 0
-134 -93 -174 -99 -177 0
-134 -93 -174 -138 -177 0
-134 -93 -99 -138 -177 0
-134 -132 -171 -96 -174 0
-134 -132 -171 -96 -99 0
-134 -132 -171 -96 -138 0
-134 -132 -171 -96 -177 0
-134 -132 -171 -174 -99 0
-134 -132 -171 -174 -138 0
-134 -132 -171 -174 -177 0
-134 -132 -171 -99 -138 0
-134 -132 -171 -99 -177 0
-134 -132 -171 -138 -177 0
-134 -132 -96 -174 -99 0
-134 -132 -96 -174 -138 0
-134 -132 -96 -174 -177 0
-134 -132 -96 -99 -138 0
-134 -132 -96 -99 -177 0
-134 -132 -96 -138 -177 0
-134 -132 -174 -99 -138 0
-134 -132 -174 -99 -177 0
-134 -132 -174 -138 -177 0
-134 -132 -99 -138 -177 0
-134 -171 -96 -174 -99 0
-134 -171 -96 -174 -138 0
-134 -171 -96 -174 -177 0
-134 -171 -96 -99 -138 0
-134 -171 -96 -99 -177 0
-134 -171 -96 -138 -177 0
-134 -171 -174 -99 -138 0
-134 -171 -174 -99 -177 0
-134 -171 -174 -138 -177 0
-134 -171 -99 -138 -177 0
-134 -96 -174 -99 -138 0
-134 -96 -174 -99 -177 0
-134 -96 -174 -138 -177 0
-134 -96 -99 -138 -177 0
-134 -174 -99 -138 -177 0
-134 93 132 171 96 174 99 0
-134 93 132 171 96 174 138 0
-134 93 132 171 96 174 177 0
-134 93 132 171 96 99 138 0
-134 93 132 171 96 99 177 0
-134 93 132 171 96 138 177 0
-134 93 132 171 174 99 138 0
-134 93 132 171 174 99 177 0
-134 93 132 171 174 138 177 0
-134 93 132 171 99 138 177 0
-134 93 132 96 174 99 138 0
-134 93 132 96 174 99 177 0
-134 93 132 96 174 138 177 0
-134 93 132 96 99 138 177 0
-134 93 132 174 99 138 177 0
-134 93 171 96 174 99 138 0
-134 93 171 96 174 99 177 0
-134 93 171 96 174 138 177 0
-134 93 171 96 99 138 177 0
-134 93 171 174 99 138 177 0
-134 93 96 174 99 138 177 0
-134 132 171 96 174 99 138 0
-134 132 171 96 174 99 177 0
-134 132 171 96 174 138 177 0
-134 132 171 96 99 138 177 0
-134 132 171 174 99 138 177 0
-134 132 96 174 99 138 177 0
-134 171 96 174 99 138 177 0
-135 -91 -130 -169 -94 -172 -97 -136 0
-135 -91 -130 -169 -94 -172 -97 -175 0
-135 -91 -130 -169 -94 -172 -136 -175 0
-135 -91 -130 -169 -94 -97 -136 -175 0
-135 -91 -130 -169 -172 -97 -136 -175 0
-135 -91 -130 -94 -172 -97 -136 -175 0
-135 -91 -169 -94 -172 -97 -136 -175 0
-135 -130 -169 -94 -172 -97 -136 -175 0
-135 91 130 169 0
-135 91 130 94 0
-135 91 130 172 0
-135 91 130 97 0
-135 91 130 136 0
-135 91 130 175 0
-135 91 169 94 0
-135 91 169 172 0
-135 91 169 97 0
-135 91 169 136 0
-135 91 169 175 0
-135 91 94 172 0
-135 91 94 97 0
-135 91 94 136 0
-135 91 94 175 0
-135 91 172 97 0
-135 91 172 136 0
-135 91 172 175 0
-135 91 97 136 0
-135 91 97 175 0
-135 91 136 175 0
-135 130 169 94 0
-135 130 169 172 0
-135 130 169 97 0
-135 130 169 136 0
-135 130 169 175 0
-135 130 94 172 0
-135 130 94 97 0
-135 130 94 136 0
-135 130 94 175 0
-135 130 172 97 0
-135 130 172 136 0
-135 130 172 175 0
-135 130 97 136 0
-135 130 97 175 0
-135 130 136 175 0
-135 169 94 172 0
-135 169 94 97 0
-135 169 94 136 0
-135 169 94 175 0
-135 169 172 97 0
-135 169 172 136 0
-135 169 172 175 0
-135 169 97 136 0
-135 169 97 175 0
-135 169 136 175 0
-135 94 172 97 0
-135 94 172 136 0
-135 94 172 175 0
-135 94 97 136 0
-135 94 97 175 0
-135 94 136 175 0
-135 172 97 136 0
-135 172 97 175 0
-135 172 136 175 0
-135 97 136 175 0
-136 -137 0
-136 -138 0
-137 -138 0
-136 -95 -134 0
-136 -95 -173 0
-136 -95 -98 0
-136 -95 -176 0
-136 -95 -101 0
-136 -95 -140 0
-136 -95 -179 0
-136 -134 -173 0
-136 -134 -98 0
-136 -134 -176 0
-136 -134 -101 0
-136 -134 -140 0
-136 -134 -179 0
-136 -173 -98 0
-136 -173 -176 0
-136 -173 -101 0
-136 -173 -140 0
-136 -173 -179 0
-136 -98 -176 0
-136 -98 -101 0
-136 -98 -140 0
-136 -98 -179 0
-136 -176 -101 0
-136 -176 -140 0
-136 -176 -179 0
-136 -101 -140 0
-136 -101 -179 0
-136 -140 -179 0
-136 95 134 173 98 176 101 140 179 0
-137 -96 -135 -174 -99 0
-137 -96 -135 -174 -177 0
-137 -96 -135 -174 -102 0
-137 -96 -135 -174 -141 0
-137 -96 -135 -174 -180 0
-137 -96 -135 -99 -177 0
-137 -96 -135 -99 -102 0
-137 -96 -135 -99 -141 0
-137 -96 -135 -99 -180 0
-137 -96 -135 -177 -102 0
-137 -96 -135 -177 -141 0
-137 -96 -135 -177 -180 0
-137 -96 -135 -102 -141 0
-137 -96 -135 -102 -180 0
-137 -96 -135 -141 -180 0
-137 -96 -174 -99 -177 0
-137 -96 -174 -99 -102 0
-137 -96 -174 -99 -141 0
-137 -96 -174 -99 -180 0
-137 -96 -174 -177 -102 0
-137 -96 -174 -177 -141 0
-137 -96 -174 -177 -180 0
-137 -96 -174 -102 -141 0
-137 -96 -174 -102 -180 0
-137 -96 -174 -141 -180 0
-137 -96 -99 -177 -102 0
-137 -96 -99 -177 -141 0
-137 -96 -99 -177 -180 0
-137 -96 -99 -102 -141 0
-137 -96 -99 -102 -180 0
-137 -96 -99 -141 -180 0
-137 -96 -177 -102 -141 0
-137 -96 -177 -102 -180 0
-137 -96 -177 -141 -180 0
-137 -96 -102 -141 -180 0
-137 -135 -174 -99 -177 0
-137 -135 -174 -99 -102 0
-137 -135 -174 -99 -141 0
-137 -135 -174 -99 -180 0
-137 -135 -174 -177 -102 0
-137 -135 -174 -177 -141 0
-137 -135 -174 -177 -180 0
-137 -135 -174 -102 -141 0
-137 -135 -174 -102 -180 0
-137 -135 -174 -141 -180 0
-137 -135 -99 -177 -102 0
-137 -135 -99 -177 -141 0
-137 -135 -99 -177 -180 0
-137 -135 -99 -102 -141 0
-137 -135 -99 -102 -180 0
-137 -135 -99 -141 -180 0
-137 -135 -177 -102 -141 0
-137 -135 -177 -102 -180 0
-137 -135 -177 -141 -180 0
-137 -135 -102 -141 -180 0
-137 -174 -99 -177 -102 0
-137 -174 -99 -177 -141 0
-137 -174 -99 -177 -180 0
-137 -174 -99 -102 -141 0
-137 -174 -99 -102 -180 0
-137 -174 -99 -141 -180 0
-137 -174 -177 -102 -141 0
-137 -174 -177 -102 -180 0
-137 -174 -177 -141 -180 0
-137 -174 -102 -141 -180 0
-137 -99 -177 -102 -141 0
-137 -99 -177 -102 -180 0
-137 -99 -177 -141 -180 0
-137 -99 -102 -141 -180 0
-137 -177 -102 -141 -180 0
-137 96 135 174 99 177 102 0
-137 96 135 174 99 177 141 0
-137 96 135 174 99 177 180 0
-137 96 135 174 99 102 141 0
-137 96 135 174 99 102 180 0
-137 96 135 174 99 141 180 0
-137 96 135 174 177 102 141 0
-137 96 135 174 177 102 180 0
-137 96 135 174 177 141 180 0
-137 96 135 174 102 141 180 0
-137 96 135 99 177 102 141 0
-137 96 135 99 177 102 180 0
-137 96 135 99 177 141 180 0
-137 96 135 99 102 141 180 0
-137 96 135 177 102 141 180 0
-137 96 174 99 177 102 141 0
-137 96 174 99 177 102 180 0
-137 96 174 99 177 141 180 0
-137 96 174 99 102 141 180 0
-137 96 174 177 102 141 180 0
-137 96 99 177 102 141 180 0
-137 135 174 99 177 102 141 0
-137 135 174 99 177 102 180 0
-137 135 174 99 177 141 180 0
-137 135 174 99 102 141 180 0
-137 135 174 177 102 141 180 0
-137 135 99 177 102 141 180 0
-137 174 99 177 102 141 180 0
-138 -94 -133 -172 -97 -175 -100 -139 0
-138 -94 -133 -172 -97 -175 -100 -178 0
-138 -94 -133 -172 -97 -175 -139 -178 0
-138 -94 -133 -172 -97 -100 -139 -178 0
-138 -94 -133 -172 -175 -100 -139 -178 0
-138 -94 -133 -97 -175 -100 -139 -178 0
-138 -94 -172 -97 -175 -100 -139 -178 0
-138 -133 -172 -97 -175 -100 -139 -178 0
-138 94 133 172 0
-138 94 133 97 0
-138 94 133 175 0
-138 94 133 100 0
-138 94 133 139 0
-138 94 133 178 0
-138 94 172 97 0
-138 94 172 175 0
-138 94 172 100 0
-138 94 172 139 0
-138 94 172 178 0
-138 94 97 175 0
-138 94 97 100 0
-138 94 97 139 0
-138 94 97 178 0
-138 94 175 100 0
-138 94 175 139 0
-138 94 175 178 0
-138 94 100 139 0
-138 94 100 178 0
-138 94 139 178 0
-138 133 172 97 0
-138 133 172 175 0
-138 133 172 100 0
-138 133 172 139 0
-138 133 172 178 0
-138 133 97 175 0
-138 133 97 100 0
-138 133 97 139 0
-138 133 97 178 0
-138 133 175 100 0
-138 133 175 139 0
-138 133 175 178 0
-138 133 100 139 0
-138 133 100 178 0
-138 133 139 178 0
-138 172 97 175 0
-138 172 97 100 0
-138 172 97 139 0
-138 172 97 178 0
-138 172 175 100 0
-138 172 175 139 0
-138 172 175 178 0
-138 172 100 139 0
-138 172 100 178 0
-138 172 139 178 0
-138 97 175 100 0
-138 97 175 139 0
-138 97 175 178 0
-138 97 100 139 0
-138 97 100 178 0
-138 97 139 178 0
-138 175 100 139 0
-138 175 100 178 0
-138 175 139 178 0
-138 100 139 178 0
-139 -140 0
-139 -141 0
-140 -141 0
-139 -98 -137 0
-139 -98 -176 0
-139 -98 -101 0
-139 -98 -179 0
-139 -98 -104 0
-139 -98 -143 0
-139 -98 -182 0
-139 -137 -176 0
-139 -137 -101 0
-139 -137 -179 0
-139 -137 -104 0
-139 -137 -143 0
-139 -137 -182 0
-139 -176 -101 0
-139 -176 -179 0
-139 -176 -104 0
-139 -176 -143 0
-139 -176 -182 0
-139 -101 -179 0
-139 -101 -104 0
-139 -101 -143 0
-139 -101 -182 0
-139 -179 -104 0
-139 -179 -143 0
-139 -179 -182 0
-139 -104 -143 0
-139 -104 -182 0
-139 -143 -182 0
-139 98 137 176 101 179 104 143 182 0
-140 -99 -138 -177 -102 0
-140 -99 -138 -177 -180 0
-140 -99 -138 -177 -105 0
-140 -99 -138 -177 -144 0
-140 -99 -138 -177 -183 0
-140 -99 -138 -102 -180 0
-140 -99 -138 -102 -105 0
-140 -99 -138 -102 -144 0
-140 -99 -138 -102 -183 0
-140 -99 -138 -180 -105 0
-140 -99 -138 -180 -144 0
-140 -99 -138 -180 -183 0
-140 -99 -138 -105 -144 0
-140 -99 -138 -105 -183 0
-140 -99 -138 -144 -183 0
-140 -99 -177 -102 -180 0
-140 -99 -177 -102 -105 0
-140 -99 -177 -102 -144 0
-140 -99 -177 -102 -183 0
-140 -99 -177 -180 -105 0
-140 -99 -177 -180 -144 0
-140 -99 -177 -180 -183 0
-140 -99 -177 -105 -144 0
-140 -99 -177 -105 -183 0
-140 -99 -177 -144 -183 0
-140 -99 -102 -180 -105 0
-140 -99 -102 -180 -144 0
-140 -99 -102 -180 -183 0
-140 -99 -102 -105 -144 0
-140 -99 -102 -105 -183 0
-140 -99 -102 -144 -183 0
-140 -99 -180 -105 -144 0
-140 -99 -180 -105 -183 0
-140 -99 -180 -144 -183 0
-140 -99 -105 -144 -183 0
-140 -138 -177 -102 -180 0
-140 -138 -177 -102 -105 0
-140 -138 -177 -102 -144 0
-140 -138 -177 -102 -183 0
-140 -138 -177 -180 -105 0
-140 -138 -177 -180 -144 0
-140 -138 -177 -180 -183 0
-140 -138 -177 -105 -144 0
-140 -138 -177 -105 -183 0
-140 -138 -177 -144 -183 0
-140 -138 -102 -180 -105 0
-140 -138 -102 -180 -144 0
-140 -138 -102 -180 -183 0
-140 -138 -102 -105 -144 0
-140 -138 -102 -105 -183 0
-140 -138 -102 -144 -183 0
-140 -138 -180 -105 -144 0
-140 -138 -180 -105 -183 0
-140 -138 -180 -144 -183 0
-140 -138 -105 -144 -183 0
-140 -177 -102 -180 -105 0
-140 -177 -102 -180 -144 0
-140 -177 -102 -180 -183 0
-140 -177 -102 -105 -144 0
-140 -177 -102 -105 -183 0
-140 -177 -102 -144 -183 0
-140 -177 -180 -105 -144 0
-140 -177 -180 -105 -183 0
-140 -177 -180 -144 -183 0
-140 -177 -105 -144 -183 0
-140 -102 -180 -105 -144 0
-140 -102 -180 -105 -183 0
-140 -102 -180 -144 -183 0
-140 -102 -105 -144 -183 0
-140 -180 -105 -144 -183 0
-140 99 138 177 102 180 105 0
-140 99 138 177 102 180 144 0
-140 99 138 177 102 180 183 0
-140 99 138 177 102 105 144 0
-140 99 138 177 102 105 183 0
-140 99 138 177 102 144 183 0
-140 99 138 177 180 105 144 0
-140 99 138 177 180 105 183 0
-140 99 138 177 180 144 183 0
-140 99 138 177 105 144 183 0
-140 99 138 102 180 105 144 0
-140 99 138 102 180 105 183 0
-140 99 138 102 180 144 183 0
-140 99 138 102 105 144 183 0
-140 99 138 180 105 144 183 0
-140 99 177 102 180 105 144 0
-140 99 177 102 180 105 183 0
-140 99 177 102 180 144 183 0
-140 99 177 102 105 144 183 0
-140 99 177 180 105 144 183 0
-140 99 102 180 105 144 183 0
-140 138 177 102 180 105 144 0
-140 138 177 102 180 105 183 0
-140 138 177 102 180 144 183 0
-140 138 177 102 105 144 183 0
-140 138 177 180 105 144 183 0
-140 138 102 180 105 144 183 0
-140 177 102 180 105 144 183 0
-141 -97 -136 -175 -100 -178 -103 -142 0
-141 -97 -136 -175 -100 -178 -103 -181 0
-141 -97 -136 -175 -100 -178 -142 -181 0
-141 -97 -136 -175 -100 -103 -142 -181 0
-141 -97 -136 -175 -178 -103 -142 -181 0
-141 -97 -136 -100 -178 -103 -142 -181 0
-141 -97 -175 -100 -178 -103 -142 -181 0
-141 -136 -175 -100 -178 -103 -142 -181 0
-141 97 136 175 0
-141 97 136 100 0
-141 97 136 178 0
-141 97 136 103 0
-141 97 136 142 0
-141 97 136 181 0
-141 97 175 100 0
-141 97 175 178 0
-141 97 175 103 0
-141 97 175 142 0
-141 97 175 181 0
-141 97 100 178 0
-141 97 100 103 0
-141 97 100 142 0
-141 97 100 181 0
-141 97 178 103 0
-141 97 178 142 0
-141 97 178 181 0
-141 97 103 142 0
-141 97 103 181 0
-141 97 142 181 0
-141 136 175 100 0
-141 136 175 178 0
-141 136 175 103 0
-141 136 175 142 0
-141 136 175 181 0
-141 136 100 178 0
-141 136 100 103 0
-141 136 100 142 0
-141 136 100 181 0
-141 136 178 103 0
-141 136 178 142 0
-141 136 178 181 0
-141 136 103 142 0
-141 136 103 181 0
-141 136 142 181 0
-141 175 100 178 0
-141 175 100 103 0
-141 175 100 142 0
-141 175 100 181 0
-141 175 178 103 0
-141 175 178 142 0
-141 175 178 181 0
-141 175 103 142 0
-141 175 103 181 0
-141 175 142 181 0
-141 100 178 103 0
-141 100 178 142 0
-141 100 178 181 0
-141 100 103 142 0
-141 100 103 181 0
-141 100 142 181 0
-141 178 103 142 0
-141 178 103 181 0
-141 178 142 181 0
-141 103 142 181 0
-142 -143 0
-142 -144 0
-143 -144 0
-142 -101 -140 0
-142 -101 -179 0
-142 -101 -104 0
-142 -101 -182 0
-142 -101 -107 0
-142 -101 -146 0
-142 -101 -185 0
-142 -140 -179 0
-142 -140 -104 0
-142 -140 -182 0
-142 -140 -107 0
-142 -140 -146 0
-142 -140 -185 0
-142 -179 -104 0
-142 -179 -182 0
-142 -179 -107 0
-142 -179 -146 0
-142 -179 -185 0
-142 -104 -182 0
-142 -104 -107 0
-142 -104 -146 0
-142 -104 -185 0
-142 -182 -107 0
-142 -182 -146 0
-142 -182 -185 0
-142 -107 -146 0
-142 -107 -185 0
-142 -146 -185 0
-142 101 140 179 104 182 107 146 185 0
-143 -102 -141 -180 -105 0
-143 -102 -141 -180 -183 0
-143 -102 -141 -180 -108 0
-143 -102 -141 -180 -147 0
-143 -102 -141 -180 -186 0
-143 -102 -141 -105 -183 0
-143 -102 -141 -105 -108 0
-143 -102 -141 -105 -147 0
-143 -102 -141 -105 -186 0
-143 -102 -141 -183 -108 0
-143 -102 -141 -183 -147 0
-143 -102 -141 -183 -186 0
-143 -102 -141 -108 -147 0
-143 -102 -141 -108 -186 0
-143 -102 -141 -147 -186 0
-143 -102 -180 -105 -183 0
-143 -102 -180 -105 -108 0
-143 -102 -180 -105 -147 0
-143 -102 -180 -105 -186 0
-143 -102 -180 -183 -108 0
-143 -102 -180 -183 -147 0
-143 -102 -180 -183 -186 0
-143 -102 -180 -108 -147 0
-143 -102 -180 -108 -186 0
-143 -102 -180 -147 -186 0
-143 -102 -105 -183 -108 0
-143 -102 -105 -183 -147 0
-143 -102 -105 -183 -186 0
-143 -102 -105 -108 -147 0
-143 -102 -105 -108 -186 0
-143 -102 -105 -147 -186 0
-143 -102 -183 -108 -147 0
-143 -102 -183 -108 -186 0
-143 -102 -183 -147 -186 0
-143 -102 -108 -147 -186 0
-143 -141 -180 -105 -183 0
-143 -141 -180 -105 -108 0
-143 -141 -180 -105 -147 0
-143 -141 -180 -105 -186 0
-143 -141 -180 -183 -108 0
-143 -141 -180 -183 -147 0
-143 -141 -180 -183 -186 0
-143 -141 -180 -108 -147 0
-143 -141 -180 -108 -186 0
-143 -141 -180 -147 -186 0
-143 -141 -105 -183 -108 0
-143 -141 -105 -183 -147 0
-143 -141 -105 -183 -186 0
-143 -141 -105 -108 -147 0
-143 -141 -105 -108 -186 0
-143 -141 -105 -147 -186 0
-143 -141 -183 -108 -147 0
-143 -141 -183 -108 -186 0
-143 -141 -183 -147 -186 0
-143 -141 -108 -147 -186 0
-143 -180 -105 -183 -108 0
-143 -180 -105 -183 -147 0
-143 -180 -105 -183 -186 0
-143 -180 -105 -108 -147 0
-143 -180 -105 -108 -186 0
-143 -180 -105 -147 -186 0
-143 -180 -183 -108 -147 0
-143 -180 -183 -108 -186 0
-143 -180 -183 -147 -186 0
-143 -180 -108 -147 -186 0
-143 -105 -183 -108 -147 0
-143 -105 -183 -108 -186 0
-143 -105 -183 -147 -186 0
-143 -105 -108 -147 -186 0
-143 -183 -108 -147 -186 0
-143 102 141 180 105 183 108 0
-143 102 141 180 105 183 147 0
-143 102 141 180 105 183 186 0
-143 102 141 180 105 108 147 0
-143 102 141 180 105 108 186 0
-143 102 141 180 105 147 186 0
-143 102 141 180 183 108 147 0
-143 102 141 180 183 108 186 0
-143 102 141 180 183 147 186 0
-143 102 141 180 108 147 186 0
-143 102 141 105 183 108 147 0
-143 102 141 105 183 108 186 0
-143 102 141 105 183 147 186 0
-143 102 141 105 108 147 186 0
-143 102 141 183 108 147 186 0
-143 102 180 105 183 108 147 0
-143 102 180 105 183 108 186 0
-143 102 180 105 183 147 186 0
-143 102 180 105 108 147 186 0
-143 102 180 183 108 147 186 0
-143 102 105 183 108 147 186 0
-143 141 180 105 183 108 147 0
-143 141 180 105 183 108 186 0
-143 141 180 105 183 147 186 0
-143 141 180 105 108 147 186 0
-143 141 180 183 108 147 186 0
-143 141 105 183 108 147 186 0
-143 180 105 183 108 147 186 0
-144 -100 -139 -178 -103 -181 -106 -145 0
-144 -100 -139 -178 -103 -181 -106 -184 0
-144 -100 -139 -178 -103 -181 -145 -184 0
-144 -100 -139 -178 -103 -106 -145 -184 0
-144 -100 -139 -178 -181 -106 -145 -184 0
-144 -100 -139 -103 -181 -106 -145 -184 0
-144 -100 -178 -103 -181 -106 -145 -184 0
-144 -139 -178 -103 -181 -106 -145 -184 0
-144 100 139 178 0
-144 100 139 103 0
-144 100 139 181 0
-144 100 139 106 0
-144 100 139 145 0
-144 100 139 184 0
-144 100 178 103 0
-144 100 178 181 0
-144 100 178 106 0
-144 100 178 145 0
-144 100 178 184 0
-144 100 103 181 0
-144 100 103 106 0
-144 100 103 145 0
-144 100 103 184 0
-144 100 181 106 0
-144 100 181 145 0
-144 100 181 184 0
-144 100 106 145 0
-144 100 106 184 0
-144 100 145 184 0
-144 139 178 103 0
-144 139 178 181 0
-144 139 178 106 0
-144 139 178 145 0
-144 139 178 184 0
-144 139 103 181 0
-144 139 103 106 0
-144 139 103 145 0
-144 139 103 184 0
-144 139 181 106 0
-144 139 181 145 0
-144 139 181 184 0
-144 139 106 145 0
-144 139 106 184 0
-144 139 145 184 0
-144 178 103 181 0
-144 178 103 106 0
-144 178 103 145 0
-144 178 103 184 0
-144 178 181 106 0
-144 178 181 145 0
-144 178 181 184 0
-144 178 106 145 0
-144 178 106 184 0
-144 178 145 184 0
-144 103 181 106 0
-144 103 181 145 0
-144 103 181 184 0
-144 103 106 145 0
-144 103 106 184 0
-144 103 145 184 0
-144 181 106 145 0
-144 181 106 184 0
-144 181 145 184 0
-144 106 145 184 0
-145 -146 0
-145 -147 0
-146 -147 0
-145 -104 -143 0
-145 -104 -182 0
-145 -104 -107 0
-145 -104 -185 0
-145 -104 -110 0
-145 -104 -149 0
-145 -104 -188 0
-145 -143 -182 0
-145 -143 -107 0
-145 -143 -185 0
-145 -143 -110 0
-145 -143 -149 0
-145 -143 -188 0
-145 -182 -107 0
-145 -182 -185 0
-145 -182 -110 0
-145 -182 -149 0
-145 -182 -188 0
-145 -107 -185 0
-145 -107 -110 0
-145 -107 -149 0
-145 -107 -188 0
-145 -185 -110 0
-145 -185 -149 0
-145 -185 -188 0
-145 -110 -149 0
-145 -110 -188 0
-145 -149 -188 0
-145 104 143 182 107 185 110 149 188 0
-146 -105 -144 -183 -108 0
-146 -105 -144 -183 -186 0
-146 -105 -144 -183 -111 0
-146 -105 -144 -183 -150 0
-146 -105 -144 -183 -189 0
-146 -105 -144 -108 -186 0
-146 -105 -144 -108 -111 0
-146 -105 -144 -108 -150 0
-146 -105 -144 -108 -189 0
-146 -105 -144 -186 -111 0
-146 -105 -144 -186 -150 0
-146 -105 -144 -186 -189 0
-146 -105 -144 -111 -150 0
-146 -105 -144 -111 -189 0
-146 -105 -144 -150 -189 0
-146 -105 -183 -108 -186 0
-146 -105 -183 -108 -111 0
-146 -105 -183 -108 -150 0
-146 -105 -183 -108 -189 0
-146 -105 -183 -186 -111 0
-146 -105 -183 -186 -150 0
-146 -105 -183 -186 -189 0
-146 -105 -183 -111 -150 0
-146 -105 -183 -111 -189 0
-146 -105 -183 -150 -189 0
-146 -105 -108 -186 -111 0
-146 -105 -108 -186 -150 0
-146 -105 -108 -186 -189 0
-146 -105 -108 -111 -150 0
-146 -105 -108 -111 -189 0
-146 -105 -108 -150 -189 0
-146 -105 -186 -111 -150 0
-146 -105 -186 -111 -189 0
-146 -105 -186 -150 -189 0
-146 -105 -111 -150 -189 0
-146 -144 -183 -108 -186 0
-146 -144 -183 -108 -111 0
-146 -144 -183 -108 -150 0
-146 -144 -183 -108 -189 0
-146 -144 -183 -186 -111 0
-146 -144 -183 -186 -150 0
-146 -144 -183 -186 -189 0
-146 -144 -183 -111 -150 0
-146 -144 -183 -111 -189 0
-146 -144 -183 -150 -189 0
-146 -144 -108 -186 -111 0
-146 -144 -108 -186 -150 0
-146 -144 -108 -186 -189 0
-146 -144 -108 -111 -150 0
-146 -144 -108 -111 -189 0
-146 -144 -108 -150 -189 0
-146 -144 -186 -111 -150 0
-146 -144 -186 -111 -189 0
-146 -144 -186 -150 -189 0
-146 -144 -111 -150 -189 0
-146 -183 -108 -186 -111 0
-146 -183 -108 -186 -150 0
-146 -183 -108 -186 -189 0
-146 -183 -108 -111 -150 0
-146 -183 -108 -111 -189 0
-146 -183 -108 -150 -189 0
-146 -183 -186 -111 -150 0
-146 -183 -186 -111 -189 0
-146 -183 -186 -150 -189 0
-146 -183 -111 -150 -189 0
-146 -108 -186 -111 -150 0
-146 -108 -186 -111 -189 0
-146 -108 -186 -150 -189 0
-146 -108 -111 -150 -189 0
-146 -186 -111 -150 -189 0
-146 105 144 183 108 186 111 0
-146 105 144 183 108 186 150 0
-146 105 144 183 108 186 189 0
-146 105 144 183 108 111 150 0
-146 105 144 183 108 111 189 0
-146 105 144 183 108 150 189 0
-146 105 144 183 186 111 150 0
-146 105 144 183 186 111 189 0
-146 105 144 183 186 150 189 0
-146 105 144 183 111 150 189 0
-146 105 144 108 186 111 150 0
-146 105 144 108 186 111 189 0
-146 105 144 108 186 150 189 0
-146 105 144 108 111 150 189 0
-146 105 144 186 111 150 189 0
-146 105 183 108 186 111 150 0
-146 105 183 108 186 111 189 0
-146 105 183 108 186 150 189 0
-146 105 183 108 111 150 189 0
-146 105 183 186 111 150 189 0
-146 105 108 186 111 150 189 0
-146 144 183 108 186 111 150 0
-146 144 183 108 186 111 189 0
-146 144 183 108 186 150 189 0
-146 144 183 108 111 150 189 0
-146 144 183 186 111 150 189 0
-146 144 108 186 111 150 189 0
-146 183 108 186 111 150 189 0
-147 -103 -142 -181 -106 -184 -109 -148 0
-147 -103 -142 -181 -106 -184 -109 -187 0
-147 -103 -142 -181 -106 -184 -148 -187 0
-147 -103 -142 -181 -106 -109 -148 -187 0
-147 -103 -142 -181 -184 -109 -148 -187 0
-147 -103 -142 -106 -184 -109 -148 -187 0
-147 -103 -181 -106 -184 -109 -148 -187 0
-147 -142 -181 -106 -184 -109 -148 -187 0
-147 103 142 181 0
-147 103 142 106 0
-147 103 142 184 0
-147 103 142 109 0
-147 103 142 148 0
-147 103 142 187 0
-147 103 181 106 0
-147 103 181 184 0
-147 103 181 109 0
-147 103 181 148 0
-147 103 181 187 0
-147 103 106 184 0
-147 103 106 109 0
-147 103 106 148 0
-147 103 106 187 0
-147 103 184 109 0
-147 103 184 148 0
-147 103 184 187 0
-147 103 109 148 0
-147 103 109 187 0
-147 103 148 187 0
-147 142 181 106 0
-147 142 181 184 0
-147 142 181 109 0
-147 142 181 148 0
-147 142 181 187 0
-147 142 106 184 0
-147 142 106 109 0
-147 142 106 148 0
-147 142 106 187 0
-147 142 184 109 0
-147 142 184 148 0
-147 142 184 187 0
-147 142 109 148 0
-147 142 109 187 0
-147 142 148 187 0
-147 181 106 184 0
-147 181 106 109 0
-147 181 106 148 0
-147 181 106 187 0
-147 181 184 109 0
-147 181 184 148 0
-147 181 184 187 0
-147 181 109 148 0
-147 181 109 187 0
-147 181 148 187 0
-147 106 184 109 0
-147 106 184 148 0
-147 106 184 187 0
-147 106 109 148 0
-147 106 109 187 0
-147 106 148 187 0
-147 184 109 148 0
-147 184 109 187 0
-147 184 148 187 0
-147 109 148 187 0
-148 -149 0
-148 -150 0
-149 -150 0
-148 -107 -146 0
-148 -107 -185 0
-148 -107 -110 0
-148 -107 -188 0
-148 -107 -113 0
-148 -107 -152 0
-148 -107 -191 0
-148 -146 -185 0
-148 -146 -110 0
-148 -146 -188 0
-148 -146 -113 0
-148 -146 -152 0
-148 -146 -191 0
-148 -185 -110 0
-148 -185 -188 0
-148 -185 -113 0
-148 -185 -152 0
-148 -185 -191 0
-148 -110 -188 0
-148 -110 -113 0
-148 -110 -152 0
-148 -110 -191 0
-148 -188 -113 0
-148 -188 -152 0
-148 -188 -191 0
-148 -113 -152 0
-148 -113 -191 0
-148 -152 -191 0
-148 107 146 185 110 188 113 152 191 0
-149 -108 -147 -186 -111 0
-149 -108 -147 -186 -189 0
-149 -108 -147 -186 -114 0
-149 -108 -147 -186 -153 0
-149 -108 -147 -186 -192 0
-149 -108 -147 -111 -189 0
-149 -108 -147 -111 -114 0
-149 -108 -147 -111 -153 0
-149 -108 -147 -111 -192 0
-149 -108 -147 -189 -114 0
-149 -108 -147 -189 -153 0
-149 -108 -147 -189 -192 0
-149 -108 -147 -114 -153 0
-149 -108 -147 -114 -192 0
-149 -108 -147 -153 -192 0
-149 -108 -186 -111 -189 0
-149 -108 -186 -111 -114 0
-149 -108 -186 -111 -153 0
-149 -108 -186 -111 -192 0
-149 -108 -186 -189 -114 0
-149 -108 -186 -189 -153 0
-149 -108 -186 -189 -192 0
-149 -108 -186 -114 -153 0
-149 -108 -186 -114 -192 0
-149 -108 -186 -153 -192 0
-149 -108 -111 -189 -114 0
-149 -108 -111 -189 -153 0
-149 -108 -111 -189 -192 0
-149 -108 -111 -114 -153 0
-149 -108 -111 -114 -192 0
-149 -108 -111 -153 -192 0
-149 -108 -189 -114 -153 0
-149 -108 -189 -114 -192 0
-149 -108 -189 -153 -192 0
-149 -108 -114 -153 -192 0
-149 -147 -186 -111 -189 0
-149 -147 -186 -111 -114 0
-149 -147 -186 -111 -153 0
-149 -147 -186 -111 -192 0
-149 -147 -186 -189 -114 0
-149 -147 -186 -189 -153 0
-149 -147 -186 -189 -192 0
-149 -147 -186 -114 -153 0
-149 -147 -186 -114 -192 0
-149 -147 -186 -153 -192 0
-149 -147 -111 -189 -114 0
-149 -147 -111 -189 -153 0
-149 -147 -111 -189 -192 0
-149 -147 -111 -114 -153 0
-149 -147 -111 -114 -192 0
-149 -147 -111 -153 -192 0
-149 -147 -189 -114 -153 0
-149 -147 -189 -114 -192 0
-149 -147 -189 -153 -192 0
-149 -147 -114 -153 -192 0
-149 -186 -111 -189 -114 0
-149 -186 -111 -189 -153 0
-149 -186 -111 -189 -192 0
-149 -186 -111 -114 -153 0
-149 -186 -111 -114 -192 0
-149 -186 -111 -153 -192 0
-149 -186 -189 -114 -153 0
-149 -186 -189 -114 -192 0
-149 -186 -189 -153 -192 0
-149 -186 -114 -153 -192 0
-149 -111 -189 -114 -153 0
-149 -111 -189 -114 -192 0
-149 -111 -189 -153 -192 0
-149 -111 -114 -153 -192 0
-149 -189 -114 -153 -192 0
-149 108 147 186 111 189 114 0
-149 108 147 186 111 189 153 0
-149 108 147 186 111 189 192 0
-149 108 147 186 111 114 153 0
-149 108 147 186 111 114 192 0
-149 108 147 186 111 153 192 0
-149 108 147 186 189 114 153 0
-149 108 147 186 189 114 192 0
-149 108 147 186 189 153 192 0
-149 108 147 186 114 153 192 0
-149 108 147 111 189 114 153 0
-149 108 147 111 189 114 192 0
-149 108 147 111 189 153 192 0
-149 108 147 111 114 153 192 0
-149 108 147 189 114 153 192 0
-149 108 186 111 189 114 153 0
-149 108 186 111 189 114 192 0
-149 108 186 111 189 153 192 0
-149 108 186 111 114 153 192 0
-149 108 186 189 114 153 192 0
-149 108 111 189 114 153 192 0
-149 147 186 111 189 114 153 0
-149 147 186 111 189 114 192 0
-149 147 186 111 189 153 192 0
-149 147 186 111 114 153 192 0
-149 147 186 189 114 153 192 0
-149 147 111 189 114 153 192 0
-149 186 111 189 114 153 192 0
-150 -106 -145 -184 -109 -187 -112 -151 0
-150 -106 -145 -184 -109 -187 -112 -190 0
-150 -106 -145 -184 -109 -187 -151 -190 0
-150 -106 -145 -184 -109 -112 -151 -190 0
-150 -106 -145 -184 -187 -112 -151 -190 0
-150 -106 -145 -109 -187 -112 -151 -190 0
-150 -106 -184 -109 -187 -112 -151 -190 0
-150 -145 -184 -109 -187 -112 -151 -190 0
-150 106 145 184 0
-150 106 145 109 0
-150 106 145 187 0
-150 106 145 112 0
-150 106 145 151 0
-150 106 145 190 0
-150 106 184 109 0
-150 106 184 187 0
-150 106 184 112 0
-150 106 184 151 0
-150 106 184 190 0
-150 106 109 187 0
-150 106 109 112 0
-150 106 109 151 0
-150 106 109 190 0
-150 106 187 112 0
-150 106 187 151 0
-150 106 187 190 0
-150 106 112 151 0
-150 106 112 190 0
-150 106 151 190 0
-150 145 184 109 0
-150 145 184 187 0
-150 145 184 112 0
-150 145 184 151 0
-150 145 184 190 0
-150 145 109 187 0
-150 145 109 112 0
-150 145 109 151 0
-150 145 109 190 0
-150 145 187 112 0
-150 145 187 151 0
-150 145 187 190 0
-150 145 112 151 0
-150 145 112 190 0
-150 145 151 190 0
-150 184 109 187 0
-150 184 109 112 0
-150 184 109 151 0
-150 184 109 190 0
-150 184 187 112 0
-150 184 187 151 0
-150 184 187 190 0
-150 184 112 151 0
-150 184 112 190 0
-150 184 151 190 0
-150 109 187 112 0
-150 109 187 151 0
-150 109 187 190 0
-150 109 112 151 0
-150 109 112 190 0
-150 109 151 190 0
-150 187 112 151 0
-150 187 112 190 0
-150 187 151 190 0
-150 112 151 190 0
-151 -152 0
-151 -153 0
-152 -153 0
-151 -110 -149 0
-151 -110 -188 0
-151 -110 -113 0
-151 -110 -191 0
-151 -110 -116 0
-151 -110 -155 0
-151 -110 -194 0
-151 -149 -188 0
-151 -149 -113 0
-151 -149 -191 0
-151 -149 -116 0
-151 -149 -155 0
-151 -149 -194 0
-151 -188 -113 0
-151 -188 -191 0
-151 -188 -116 0
-151 -188 -155 0
-151 -188 -194 0
-151 -113 -191 0
-151 -113 -116 0
-151 -113 -155 0
-151 -113 -194 0
-151 -191 -116 0
-151 -191 -155 0
-151 -191 -194 0
-151 -116 -155 0
-151 -116 -194 0
-151 -155 -194 0
-151 110 149 188 113 191 116 155 194 0
-152 -111 -150 -189 -114 0
-152 -111 -150 -189 -192 0
-152 -111 -150 -189 -117 0
-152 -111 -150 -189 -156 0
-152 -111 -150 -189 -195 0
-152 -111 -150 -114 -192 0
-152 -111 -150 -114 -117 0
-152 -111 -150 -114 -156 0
-152 -111 -150 -114 -195 0
-152 -111 -150 -192 -117 0
-152 -111 -150 -192 -156 0
-152 -111 -150 -192 -195 0
-152 -111 -150 -117 -156 0
-152 -111 -150 -117 -195 0
-152 -111 -150 -156 -195 0
-152 -111 -189 -114 -192 0
-152 -111 -189 -114 -117 0
-152 -111 -189 -114 -156 0
-152 -111 -189 -114 -195 0
-152 -111 -189 -192 -117 0
-152 -111 -189 -192 -156 0
-152 -111 -189 -192 -195 0
-152 -111 -189 -117 -156 0
-152 -111 -189 -117 -195 0
-152 -111 -189 -156 -195 0
-152 -111 -114 -192 -117 0
-152 -111 -114 -192 -156 0
-152 -111 -114 -192 -195 0
-152 -111 -114 -117 -156 0
-152 -111 -114 -117 -195 0
-152 -111 -114 -156 -195 0
-152 -111 -192 -117 -156 0
-152 -111 -192 -117 -195 0
-152 -111 -192 -156 -195 0
-152 -111 -117 -156 -195 0
-152 -150 -189 -114 -192 0
-152 -150 -189 -114 -117 0
-152 -150 -189 -114 -156 0
-152 -150 -189 -114 -195 0
-152 -150 -189 -192 -117 0
-152 -150 -189 -192 -156 0
-152 -150 -189 -192 -195 0
-152 -150 -189 -117 -156 0
-152 -150 -189 -117 -195 0
-152 -150 -189 -156 -195 0
-152 -150 -114 -192 -117 0
-152 -150 -114 -192 -156 0
-152 -150 -114 -192 -195 0
-152 -150 -114 -117 -156 0
-152 -150 -114 -117 -195 0
-152 -150 -114 -156 -195 0
-152 -150 -192 -117 -156 0
-152 -150 -192 -117 -195 0
-152 -150 -192 -156 -195 0
-152 -150 -117 -156 -195 0
-152 -189 -114 -192 -117 0
-152 -189 -114 -192 -156 0
-152 -189 -114 -192 -195 0
-152 -189 -114 -117 -156 0
-152 -189 -114 -117 -195 0
-152 -189 -114 -156 -195 0
-152 -189 -192 -117 -156 0
-152 -189 -192 -117 -195 0
-152 -189 -192 -156 -195 0
-152 -189 -117 -156 -195 0
-152 -114 -192 -117 -156 0
-152 -114 -192 -117 -195 0
-152 -114 -192 -156 -195 0
-152 -114 -117 -156 -195 0
-152 -192 -117 -156 -195 0
-152 111 150 189 114 192 117 0
-152 111 150 189 114 192 156 0
-152 111 150 189 114 192 195 0
-152 111 150 189 114 117 156 0
-152 111 150 189 114 117 195 0
-152 111 150 189 114 156 195 0
-152 111 150 189 192 117 156 0
-152 111 150 189 192 117 195 0
-152 111 150 189 192 156 195 0
-152 111 150 189 117 156 195 0
-152 111 150 114 192 117 156 0
-152 111 150 114 192 117 195 0
-152 111 150 114 192 156 195 0
-152 111 150 114 117 156 195 0
-152 111 150 192 117 156 195 0
-152 111 189 114 192 117 156 0
-152 111 189 114 192 117 195 0
-152 111 189 114 192 156 195 0
-152 111 189 114 117 156 195 0
-152 111 189 192 117 156 195 0
-152 111 114 192 117 156 195 0
-152 150 189 114 192 117 156 0
-152 150 189 114 192 117 195 0
-152 150 189 114 192 156 195 0
-152 150 189 114 117 156 195 0
-152 150 189 192 117 156 195 0
-152 150 114 192 117 156 195 0
-152 189 114 192 117 156 195 0
-153 -109 -148 -187 -112 -190 -115 -154 0
-153 -109 -148 -187 -112 -190 -115 -193 0
-153 -109 -148 -187 -112 -190 -154 -193 0
-153 -109 -148 -187 -112 -115 -154 -193 0
-153 -109 -148 -187 -190 -115 -154 -193 0
-153 -109 -148 -112 -190 -115 -154 -193 0
-153 -109 -187 -112 -190 -115 -154 -193 0
-153 -148 -187 -112 -190 -115 -154 -193 0
-153 109 148 187 0
-153 109 148 112 0
-153 109 148 190 0
-153 109 148 115 0
-153 109 148 154 0
-153 109 148 193 0
-153 109 187 112 0
-153 109 187 190 0
-153 109 187 115 0
-153 109 187 154 0
-153 109 187 193 0
-153 109 112 190 0
-153 109 112 115 0
-153 109 112 154 0
-153 109 112 193 0
-153 109 190 115 0
-153 109 190 154 0
-153 109 190 193 0
-153 109 115 154 0
-153 109 115 193 0
-153 109 154 193 0
-153 148 187 112 0
-153 148 187 190 0
-153 148 187 115 0
-153 148 187 154 0
-153 148 187 193 0
-153 148 112 190 0
-153 148 112 115 0
-153 148 112 154 0
-153 148 112 193 0
-153 148 190 115 0
-153 148 190 154 0
-153 148 190 193 0
-153 148 115 154 0
-153 148 115 193 0
-153 148 154 193 0
-153 187 112 190 0
-153 187 112 115 0
-153 187 112 154 0
-153 187 112 193 0
-153 187 190 115 0
-153 187 190 154 0
-153 187 190 193 0
-153 187 115 154 0
-153 187 115 193 0
-153 187 154 193 0
-153 112 190 115 0
-153 112 190 154 0
-153 112 190 193 0
-153 112 115 154 0
-153 112 115 193 0
-153 112 154 193 0
-153 190 115 154 0
-153 190 115 193 0
-153 190 154 193 0
-153 115 154 193 0
-154 -155 0
-154 -156 0
-155 -156 0
-157 -158 0
-157 -159 0
-158 -159 0
-160 -161 0
-160 -162 0
-161 -162 0
-160 -119 -158 0
-160 -119 -197 0
-160 -119 -122 0
-160 -119 -200 0
-160 -119 -125 0
-160 -119 -164 0
-160 -119 -203 0
-160 -158 -197 0
-160 -158 -122 0
-160 -158 -200 0
-160 -158 -125 0
-160 -158 -164 0
-160 -158 -203 0
-160 -197 -122 0
-160 -197 -200 0
-160 -197 -125 0
-160 -197 -164 0
-160 -197 -203 0
-160 -122 -200 0
-160 -122 -125 0
-160 -122 -164 0
-160 -122 -203 0
-160 -200 -125 0
-160 -200 -164 0
-160 -200 -203 0
-160 -125 -164 0
-160 -125 -203 0
-160 -164 -203 0
-160 119 158 197 122 200 125 164 203 0
-161 -120 -159 -198 -123 0
-161 -120 -159 -198 -201 0
-161 -120 -159 -198 -126 0
-161 -120 -159 -198 -165 0
-161 -120 -159 -198 -204 0
-161 -120 -159 -123 -201 0
-161 -120 -159 -123 -126 0
-161 -120 -159 -123 -165 0
-161 -120 -159 -123 -204 0
-161 -120 -159 -201 -126 0
-161 -120 -159 -201 -165 0
-161 -120 -159 -201 -204 0
-161 -120 -159 -126 -165 0
-161 -120 -159 -126 -204 0
-161 -120 -159 -165 -204 0
-161 -120 -198 -123 -201 0
-161 -120 -198 -123 -126 0
-161 -120 -198 -123 -165 0
-161 -120 -198 -123 -204 0
-161 -120 -198 -201 -126 0
-161 -120 -198 -201 -165 0
-161 -120 -198 -201 -204 0
-161 -120 -198 -126 -165 0
-161 -120 -198 -126 -204 0
-161 -120 -198 -165 -204 0
-161 -120 -123 -201 -126 0
-161 -120 -123 -201 -165 0
-161 -120 -123 -201 -204 0
-161 -120 -123 -126 -165 0
-161 -120 -123 -126 -204 0
-161 -120 -123 -165 -204 0
-161 -120 -201 -126 -165 0
-161 -120 -201 -126 -204 0
-161 -120 -201 -165 -204 0
-161 -120 -126 -165 -204 0
-161 -159 -198 -123 -201 0
-161 -159 -198 -123 -126 0
-161 -159 -198 -123 -165 0
-161 -159 -198 -123 -204 0
-161 -159 -198 -201 -126 0
-161 -159 -198 -201 -165 0
-161 -159 -198 -201 -204 0
-161 -159 -198 -126 -165 0
-161 -159 -198 -126 -204 0
-161 -159 -198 -165 -204 0
-161 -159 -123 -201 -126 0
-161 -159 -123 -201 -165 0
-161 -159 -123 -201 -204 0
-161 -159 -123 -126 -165 0
-161 -159 -123 -126 -204 0
-161 -159 -123 -165 -204 0
-161 -159 -201 -126 -165 0
-161 -159 -201 -126 -204 0
-161 -159 -201 -165 -204 0
-161 -159 -126 -165 -204 0
-161 -198 -123 -201 -126 0
-161 -198 -123 -201 -165 0
-161 -198 -123 -201 -204 0
-161 -198 -123 -126 -165 0
-161 -198 -123 -126 -204 0
-161 -198 -123 -165 -204 0
-161 -198 -201 -126 -165 0
-161 -198 -201 -126 -204 0
-161 -198 -201 -165 -204 0
-161 -198 -126 -165 -204 0
-161 -123 -201 -126 -165 0
-161 -123 -201 -126 -204 0
-161 -123 -201 -165 -204 0
-161 -123 -126 -165 -204 0
-161 -201 -126 -165 -204 0
-161 120 159 198 123 201 126 0
-161 120 159 198 123 201 165 0
-161 120 159 198 123 201 204 0
-161 120 159 198 123 126 165 0
-161 120 159 198 123 126 204 0
-161 120 159 198 123 165 204 0
-161 120 159 198 201 126 165 0
-161 120 159 198 201 126 204 0
-161 120 159 198 201 165 204 0
-161 120 159 198 126 165 204 0
-161 120 159 123 201 126 165 0
-161 120 159 123 201 126 204 0
-161 120 159 123 201 165 204 0
-161 120 159 123 126 165 204 0
-161 120 159 201 126 165 204 0
-161 120 198 123 201 126 165 0
-161 120 198 123 201 126 204 0
-161 120 198 123 201 165 204 0
-161 120 198 123 126 165 204 0
-161 120 198 201 126 165 204 0
-161 120 123 201 126 165 204 0
-161 159 198 123 201 126 165 0
-161 159 198 123 201 126 204 0
-161 159 198 123 201 165 204 0
-161 159 198 123 126 165 204 0
-161 159 198 201 126 165 204 0
-161 159 123 201 126 165 204 0
-161 198 123 201 126 165 204 0
-162 -118 -157 -196 -121 -199 -124 -163 0
-162 -118 -157 -196 -121 -199 -124 -202 0
-162 -118 -157 -196 -121 -199 -163 -202 0
-162 -118 -157 -196 -121 -124 -163 -202 0
-162 -118 -157 -196 -199 -124 -163 -202 0
-162 -118 -157 -121 -199 -124 -163 -202 0
-162 -118 -196 -121 -199 -124 -163 -202 0
-162 -157 -196 -121 -199 -124 -163 -202 0
-162 118 157 196 0
-162 118 157 121 0
-162 118 157 199 0
-162 118 157 124 0
-162 118 157 163 0
-162 118 157 202 0
-162 118 196 121 0
-162 118 196 199 0
-162 118 196 124 0
-162 118 196 163 0
-162 118 196 202 0
-162 118 121 199 0
-162 118 121 124 0
-162 118 121 163 0
-162 118 121 202 0
-162 118 199 124 0
-162 118 199 163 0
-162 118 199 202 0
-162 118 124 163 0
-162 118 124 202 0
-162 118 163 202 0
-162 157 196 121 0
-162 157 196 199 0
-162 157 196 124 0
-162 157 196 163 0
-162 157 196 202 0
-162 157 121 199 0
-162 157 121 124 0
-162 157 121 163 0
-162 157 121 202 0
-162 157 199 124 0
-162 157 199 163 0
-162 157 199 202 0
-162 157 124 163 0
-162 157 124 202 0
-162 157 163 202 0
-162 196 121 199 0
-162 196 121 124 0
-162 196 121 163 0
-162 196 121 202 0
-162 196 199 124 0
-162 196 199 163 0
-162 196 199 202 0
-162 196 124 163 0
-162 196 124 202 0
-162 196 163 202 0
-162 121 199 124 0
-162 121 199 163 0
-162 121 199 202 0
-162 121 124 163 0
-162 121 124 202 0
-162 121 163 202 0
-162 199 124 163 0
-162 199 124 202 0
-162 199 163 202 0
-162 124 163 202 0
-163 -164 0
-163 -165 0
-164 -165 0
-163 -122 -161 0
-163 -122 -200 0
-163 -122 -125 0
-163 -122 -203 0
-163 -122 -128 0
-163 -122 -167 0
-163 -122 -206 0
-163 -161 -200 0
-163 -161 -125 0
-163 -161 -203 0
-163 -161 -128 0
-163 -161 -167 0
-163 -161 -206 0
-163 -200 -125 0
-163 -200 -203 0
-163 -200 -128 0
-163 -200 -167 0
-163 -200 -206 0
-163 -125 -203 0
-163 -125 -128 0
-163 -125 -167 0
-163 -125 -206 0
-163 -203 -128 0
-163 -203 -167 0
-163 -203 -206 0
-163 -128 -167 0
-163 -128 -206 0
-163 -167 -206 0
-163 122 161 200 125 203 128 167 206 0
-164 -123 -162 -201 -126 0
-164 -123 -162 -201 -204 0
-164 -123 -162 -201 -129 0
-164 -123 -162 -201 -168 0
-164 -123 -162 -201 -207 0
-164 -123 -162 -126 -204 0
-164 -123 -162 -126 -129 0
-164 -123 -162 -126 -168 0
-164 -123 -162 -126 -207 0
-164 -123 -162 -204 -129 0
-164 -123 -162 -204 -168 0
-164 -123 -162 -204 -207 0
-164 -123 -162 -129 -168 0
-164 -123 -162 -129 -207 0
-164 -123 -162 -168 -207 0
-164 -123 -201 -126 -204 0
-164 -123 -201 -126 -129 0
-164 -123 -201 -126 -168 0
-164 -123 -201 -126 -207 0
-164 -123 -201 -204 -129 0
-164 -123 -201 -204 -168 0
-164 -123 -201 -204 -207 0
-164 -123 -201 -129 -168 0
-164 -123 -201 -129 -207 0
-164 -123 -201 -168 -207 0
-164 -123 -126 -204 -129 0
-164 -123 -126 -204 -168 0
-164 -123 -126 -204 -207 0
-164 -123 -126 -129 -168 0
-164 -123 -126 -129 -207 0
-164 -123 -126 -168 -207 0
-164 -123 -204 -129 -168 0
-164 -123 -204 -129 -207 0
-164 -123 -204 -168 -207 0
-164 -123 -129 -168 -207 0
-164 -162 -201 -126 -204 0
-164 -162 -201 -126 -129 0
-164 -162 -201 -126 -168 0
-164 -162 -201 -126 -207 0
-164 -162 -201 -204 -129 0
-164 -162 -201 -204 -168 0
-164 -162 -201 -204 -207 0
-164 -162 -201 -129 -168 0
-164 -162 -201 -129 -207 0
-164 -162 -201 -168 -207 0
-164 -162 -126 -204 -129 0
-164 -162 -126 -204 -168 0
-164 -162 -126 -204 -207 0
-164 -162 -126 -129 -168 0
-164 -162 -126 -129 -207 0
-164 -162 -126 -168 -207 0
-164 -162 -204 -129 -168 0
-164 -162 -204 -129 -207 0
-164 -162 -204 -168 -207 0
-164 -162 -129 -168 -207 0
-164 -201 -126 -204 -129 0
-164 -201 -126 -204 -168 0
-164 -201 -126 -204 -207 0
-164 -201 -126 -129 -168 0
-164 -201 -126 -129 -207 0
-164 -201 -126 -168 -207 0
-164 -201 -204 -129 -168 0
-164 -201 -204 -129 -207 0
-164 -201 -204 -168 -207 0
-164 -201 -129 -168 -207 0
-164 -126 -204 -129 -168 0
-164 -126 -204 -129 -207 0
-164 -126 -204 -168 -207 0
-164 -126 -129 -168 -207 0
-164 -204 -129 -168 -207 0
-164 123 162 201 126 204 129 0
-164 123 162 201 126 204 168 0
-164 123 162 201 126 204 207 0
-164 123 162 201 126 129 168 0
-164 123 162 201 126 129 207 0
-164 123 162 201 126 168 207 0
-164 123 162 201 204 129 168 0
-164 123 162 201 204 129 207 0
-164 123 162 201 204 168 207 0
-164 123 162 201 129 168 207 0
-164 123 162 126 204 129 168 0
-164 123 162 126 204 129 207 0
-164 123 162 126 204 168 207 0
-164 123 162 126 129 168 207 0
-164 123 162 204 129 168 207 0
-164 123 201 126 204 129 168 0
-164 123 201 126 204 129 207 0
-164 123 201 126 204 168 207 0
-164 123 201 126 129 168 207 0
-164 123 201 204 129 168 207 0
-164 123 126 204 129 168 207 0
-164 162 201 126 204 129 168 0
-164 162 201 126 204 129 207 0
-164 162 201 126 204 168 207 0
-164 162 201 126 129 168 207 0
-164 162 201 204 129 168 207 0
-164 162 126 204 129 168 207 0
-164 201 126 204 129 168 207 0
-165 -121 -160 -199 -124 -202 -127 -166 0
-165 -121 -160 -199 -124 -202 -127 -205 0
-165 -121 -160 -199 -124 -202 -166 -205 0
-165 -121 -160 -199 -124 -127 -166 -205 0
-165 -121 -160 -199 -202 -127 -166 -205 0
-165 -121 -160 -124 -202 -127 -166 -205 0
-165 -121 -199 -124 -202 -127 -166 -205 0
-165 -160 -199 -124 -202 -127 -166 -205 0
-165 121 160 199 0
-165 121 160 124 0
-165 121 160 202 0
-165 121 160 127 0
-165 121 160 166 0
-165 121 160 205 0
-165 121 199 124 0
-165 121 199 202 0
-165 121 199 127 0
-165 121 199 166 0
-165 121 199 205 0
-165 121 124 202 0
-165 121 124 127 0
-165 121 124 166 0
-165 121 124 205 0
-165 121 202 127 0
-165 121 202 166 0
-165 121 202 205 0
-165 121 127 166 0
-165 121 127 205 0
-165 121 166 205 0
-165 160 199 124 0
-165 160 199 202 0
-165 160 199 127 0
-165 160 199 166 0
-165 160 199 205 0
-165 160 124 202 0
-165 160 124 127 0
-165 160 124 166 0
-165 160 124 205 0
-165 160 202 127 0
-165 160 202 166 0
-165 160 202 205 0
-165 160 127 166 0
-165 160 127 205 0
-165 160 166 205 0
-165 199 124 202 0
-165 199 124 127 0
-165 199 124 166 0
-165 199 124 205 0
-165 199 202 127 0
-165 199 202 166 0
-165 199 202 205 0
-165 199 127 166 0
-165 199 127 205 0
-165 199 166 205 0
-165 124 202 127 0
-165 124 202 166 0
-165 124 202 205 0
-165 124 127 166 0
-165 124 127 205 0
-165 124 166 205 0
-165 202 127 166 0
-165 202 127 205 0
-165 202 166 205 0
-165 127 166 205 0
-166 -167 0
-166 -168 0
-167 -168 0
-166 -125 -164 0
-166 -125 -203 0
-166 -125 -128 0
-166 -125 -206 0
-166 -125 -131 0
-166 -125 -170 0
-166 -125 -209 0
-166 -164 -203 0
-166 -164 -128 0
-166 -164 -206 0
-166 -164 -131 0
-166 -164 -170 0
-166 -164 -209 0
-166 -203 -128 0
-166 -203 -206 0
-166 -203 -131 0
-166 -203 -170 0
-166 -203 -209 0
-166 -128 -206 0
-166 -128 -131 0
-166 -128 -170 0
-166 -128 -209 0
-166 -206 -131 0
-166 -206 -170 0
-166 -206 -209 0
-166 -131 -170 0
-166 -131 -209 0
-166 -170 -209 0
-166 125 164 203 128 206 131 170 209 0
-167 -126 -165 -204 -129 0
-167 -126 -165 -204 -207 0
-167 -126 -165 -204 -132 0
-167 -126 -165 -204 -171 0
-167 -126 -165 -204 -210 0
-167 -126 -165 -129 -207 0
-167 -126 -165 -129 -132 0
-167 -126 -165 -129 -171 0
-167 -126 -165 -129 -210 0
-167 -126 -165 -207 -132 0
-167 -126 -165 -207 -171 0
-167 -126 -165 -207 -210 0
-167 -126 -165 -132 -171 0
-167 -126 -165 -132 -210 0
-167 -126 -165 -171 -210 0
-167 -126 -204 -129 -207 0
-167 -126 -204 -129 -132 0
-167 -126 -204 -129 -171 0
-167 -126 -204 -129 -210 0
-167 -126 -204 -207 -132 0
-167 -126 -204 -207 -171 0
-167 -126 -204 -207 -210 0
-167 -126 -204 -132 -171 0
-167 -126 -204 -132 -210 0
-167 -126 -204 -171 -210 0
-167 -126 -129 -207 -132 0
-167 -126 -129 -207 -171 0
-167 -126 -129 -207 -210 0
-167 -126 -129 -132 -171 0
-167 -126 -129 -132 -210 0
-167 -126 -129 -171 -210 0
-167 -126 -207 -132 -171 0
-167 -126 -207 -132 -210 0
-167 -126 -207 -171 -210 0
-167 -126 -132 -171 -210 0
-167 -165 -204 -129 -207 0
-167 -165 -204 -129 -132 0
-167 -165 -204 -129 -171 0
-167 -165 -204 -129 -210 0
-167 -165 -204 -207 -132 0
-167 -165 -204 -207 -171 0
-167 -165 -204 -207 -210 0
-167 -165 -204 -132 -171 0
-167 -165 -204 -132 -210 0
-167 -165 -204 -171 -210 0
-167 -165 -129 -207 -132 0
-167 -165 -129 -207 -171 0
-167 -165 -129 -207 -210 0
-167 -165 -129 -132 -171 0
-167 -165 -129 -132 -210 0
-167 -165 -129 -171 -210 0
-167 -165 -207 -132 -171 0
-167 -165 -207 -132 -210 0
-167 -165 -207 -171 -210 0
-167 -165 -132 -171 -210 0
-167 -204 -129 -207 -132 0
-167 -204 -129 -207 -171 0
-167 -204 -129 -207 -210 0
-167 -204 -129 -132 -171 0
-167 -204 -129 -132 -210 0
-167 -204 -129 -171 -210 0
-167 -204 -207 -132 -171 0
-167 -204 -207 -132 -210 0
-167 -204 -207 -171 -210 0
-167 -204 -132 -171 -210 0
-167 -129 -207 -132 -171 0
-167 -129 -207 -132 -210 0
-167 -129 -207 -171 -210 0
-167 -129 -132 -171 -210 0
-167 -207 -132 -171 -210 0
-167 126 165 204 129 207 132 0
-167 126 165 204 129 207 171 0
-167 126 165 204 129 207 210 0
-167 126 165 204 129 132 171 0
-167 126 165 204 129 132 210 0
-167 126 165 204 129 171 210 0
-167 126 165 204 207 132 171 0
-167 126 165 204 207 132 210 0
-167 126 165 204 207 171 210 0
-167 126 165 204 132 171 210 0
-167 126 165 129 207 132 171 0
-167 126 165 129 207 132 210 0
-167 126 165 129 207 171 210 0
-167 126 165 129 132 171 210 0
-167 126 165 207 132 171 210 0
-167 126 204 129 207 132 171 0
-167 126 204 129 207 132 210 0
-167 126 204 129 207 171 210 0
-167 126 204 129 132 171 210 0
-167 126 204 207 132 171 210 0
-167 126 129 207 132 171 210 0
-167 165 204 129 207 132 171 0
-167 165 204 129 207 132 210 0
-167 165 204 129 207 171 210 0
-167 165 204 129 132 171 210 0
-167 165 204 207 132 171 210 0
-167 165 129 207 132 171 210 0
-167 204 129 207 132 171 210 0
-168 -124 -163 -202 -127 -205 -130 -169 0
-168 -124 -163 -202 -127 -205 -130 -208 0
-168 -124 -163 -202 -127 -205 -169 -208 0
-168 -124 -163 -202 -127 -130 -169 -208 0
-168 -124 -163 -202 -205 -130 -169 -208 0
-168 -124 -163 -127 -205 -130 -169 -208 0
-168 -124 -202 -127 -205 -130 -169 -208 0
-168 -163 -202 -127 -205 -130 -169 -208 0
-168 124 163 202 0
-168 124 163 127 0
-168 124 163 205 0
-168 124 163 130 0
-168 124 163 169 0
-168 124 163 208 0
-168 124 202 127 0
-168 124 202 205 0
-168 124 202 130 0
-168 124 202 169 0
-168 124 202 208 0
-168 124 127 205 0
-168 124 127 130 0
-168 124 127 169 0
-168 124 127 208 0
-168 124 205 130 0
-168 124 205 169 0
-168 124 205 208 0
-168 124 130 169 0
-168 124 130 208 0
-168 124 169 208 0
-168 163 202 127 0
-168 163 202 205 0
-168 163 202 130 0
-168 163 202 169 0
-168 163 202 208 0
-168 163 127 205 0
-168 163 127 130 0
-168 163 127 169 0
-168 163 127 208 0
-168 163 205 130 0
-168 163 205 169 0
-168 163 205 208 0
-168 163 130 169 0
-168 163 130 208 0
-168 163 169 208 0
-168 202 127 205 0
-168 202 127 130 0
-168 202 127 169 0
-168 202 127 208 0
-168 202 205 130 0
-168 202 205 169 0
-168 202 205 208 0
-168 202 130 169 0
-168 202 130 208 0
-168 202 169 208 0
-168 127 205 130 0
-168 127 205 169 0
-168 127 205 208 0
-168 127 130 169 0
-168 127 130 208 0
-168 127 169 208 0
-168 205 130 169 0
-168 205 130 208 0
-168 205 169 208 0
-168 130 169 208 0
-169 -170 0
-169 -171 0
-170 -171 0
-169 -128 -167 0
-169 -128 -206 0
-169 -128 -131 0
-169 -128 -209 0
-169 -128 -134 0
-169 -128 -173 0
-169 -128 -212 0
-169 -167 -206 0
-169 -167 -131 0
-169 -167 -209 0
-169 -167 -134 0
-169 -167 -173 0
-169 -167 -212 0
-169 -206 -131 0
-169 -206 -209 0
-169 -206 -134 0
-169 -206 -173 0
-169 -206 -212 0
-169 -131 -209 0
-169 -131 -134 0
-169 -131 -173 0
-169 -131 -212 0
-169 -209 -134 0
-169 -209 -173 0
-169 -209 -212 0
-169 -134 -173 0
-169 -134 -212 0
-169 -173 -212 0
-169 128 167 206 131 209 134 173 212 0
-170 -129 -168 -207 -132 0
-170 -129 -168 -207 -210 0
-170 -129 -168 -207 -135 0
-170 -129 -168 -207 -174 0
-170 -129 -168 -207 -213 0
-170 -129 -168 -132 -210 0
-170 -129 -168 -132 -135 0
-170 -129 -168 -132 -174 0
-170 -129 -168 -132 -213 0
-170 -129 -168 -210 -135 0
-170 -129 -168 -210 -174 0
-170 -129 -168 -210 -213 0
-170 -129 -168 -135 -174 0
-170 -129 -168 -135 -213 0
-170 -129 -168 -174 -213 0
-170 -129 -207 -132 -210 0
-170 -129 -207 -132 -135 0
-170 -129 -207 -132 -174 0
-170 -129 -207 -132 -213 0
-170 -129 -207 -210 -135 0
-170 -129 -207 -210 -174 0
-170 -129 -207 -210 -213 0
-170 -129 -207 -135 -174 0
-170 -129 -207 -135 -213 0
-170 -129 -207 -174 -213 0
-170 -129 -132 -210 -135 0
-170 -129 -132 -210 -174 0
-170 -129 -132 -210 -213 0
-170 -129 -132 -135 -174 0
-170 -129 -132 -135 -213 0
-170 -129 -132 -174 -213 0
-170 -129 -210 -135 -174 0
-170 -129 -210 -135 -213 0
-170 -129 -210 -174 -213 0
-170 -129 -135 -174 -213 0
-170 -168 -207 -132 -210 0
-170 -168 -207 -132 -135 0
-170 -168 -207 -132 -174 0
-170 -168 -207 -132 -213 0
-170 -168 -207 -210 -135 0
-170 -168 -207 -210 -174 0
-170 -168 -207 -210 -213 0
-170 -168 -207 -135 -174 0
-170 -168 -207 -135 -213 0
-170 -168 -207 -174 -213 0
-170 -168 -132 -210 -135 0
-170 -168 -132 -210 -174 0
-170 -168 -132 -210 -213 0
-170 -168 -132 -135 -174 0
-170 -168 -132 -135 -213 0
-170 -168 -132 -174 -213 0
-170 -168 -210 -135 -174 0
-170 -168 -210 -135 -213 0
-170 -168 -210 -174 -213 0
-170 -168 -135 -174 -213 0
-170 -207 -132 -210 -135 0
-170 -207 -132 -210 -174 0
-170 -207 -132 -210 -213 0
-170 -207 -132 -135 -174 0
-170 -207 -132 -135 -213 0
-170 -207 -132 -174 -213 0
-170 -207 -210 -135 -174 0
-170 -207 -210 -135 -213 0
-170 -207 -210 -174 -213 0
-170 -207 -135 -174 -213 0
-170 -132 -210 -135 -174 0
-170 -132 -210 -135 -213 0
-170 -132 -210 -174 -213 0
-170 -132 -135 -174 -213 0
-170 -210 -135 -174 -213 0
-170 129 168 207 132 210 135 0
-170 129 168 207 132 210 174 0
-170 129 168 207 132 210 213 0
-170 129 168 207 132 135 174 0
-170 129 168 207 132 135 213 0
-170 129 168 207 132 174 213 0
-170 129 168 207 210 135 174 0
-170 129 168 207 210 135 213 0
-170 129 168 207 210 174 213 0
-170 129 168 207 135 174 213 0
-170 129 168 132 210 135 174 0
-170 129 168 132 210 135 213 0
-170 129 168 132 210 174 213 0
-170 129 168 132 135 174 213 0
-170 129 168 210 135 174 213 0
-170 129 207 132 210 135 174 0
-170 129 207 132 210 135 213 0
-170 129 207 132 210 174 213 0
-170 129 207 132 135 174 213 0
-170 129 207 210 135 174 213 0
-170 129 132 210 135 174 213 0
-170 168 207 132 210 135 174 0
-170 168 207 132 210 135 213 0
-170 168 207 132 210 174 213 0
-170 168 207 132 135 174 213 0
-170 168 207 210 135 174 213 0
-170 168 132 210 135 174 213 0
-170 207 132 210 135 174 213 0
-171 -127 -166 -205 -130 -208 -133 -172 0
-171 -127 -166 -205 -130 -208 -133 -211 0
-171 -127 -166 -205 -130 -208 -172 -211 0
-171 -127 -166 -205 -130 -133 -172 -211 0
-171 -127 -166 -205 -208 -133 -172 -211 0
-171 -127 -166 -130 -208 -133 -172 -211 0
-171 -127 -205 -130 -208 -133 -172 -211 0
-171 -166 -205 -130 -208 -133 -172 -211 0
-171 127 166 205 0
-171 127 166 130 0
-171 127 166 208 0
-171 127 166 133 0
-171 127 166 172 0
-171 127 166 211 0
-171 127 205 130 0
-171 127 205 208 0
-171 127 205 133 0
-171 127 205 172 0
-171 127 205 211 0
-171 127 130 208 0
-171 127 130 133 0
-171 127 130 172 0
-171 127 130 211 0
-171 127 208 133 0
-171 127 208 172 0
-171 127 208 211 0
-171 127 133 172 0
-171 127 133 211 0
-171 127 172 211 0
-171 166 205 130 0
-171 166 205 208 0
-171 166 205 133 0
-171 166 205 172 0
-171 166 205 211 0
-171 166 130 208 0
-171 166 130 133 0
-171 166 130 172 0
-171 166 130 211 0
-171 166 208 133 0
-171 166 208 172 0
-171 166 208 211 0
-171 166 133 172 0
-171 166 133 211 0
-171 166 172 211 0
-171 205 130 208 0
-171 205 130 133 0
-171 205 130 172 0
-171 205 130 211 0
-171 205 208 133 0
-171 205 208 172 0
-171 205 208 211 0
-171 205 133 172 0
-171 205 133 211 0
-171 205 172 211 0
-171 130 208 133 0
-171 130 208 172 0
-171 130 208 211 0
-171 130 133 172 0
-171 130 133 211 0
-171 130 172 211 0
-171 208 133 172 0
-171 208 133 211 0
-171 208 172 211 0
-171 133 172 211 0
-172 -173 0
-172 -174 0
-173 -174 0
-172 -131 -170 0
-172 -131 -209 0
-172 -131 -134 0
-172 -131 -212 0
-172 -131 -137 0
-172 -131 -176 0
-172 -131 -215 0
-172 -170 -209 0
-172 -170 -134 0
-172 -170 -212 0
-172 -170 -137 0
-172 -170 -176 0
-172 -170 -215 0
-172 -209 -134 0
-172 -209 -212 0
-172 -209 -137 0
-172 -209 -176 0
-172 -209 -215 0
-172 -134 -212 0
-172 -134 -137 0
-172 -134 -176 0
-172 -134 -215 0
-172 -212 -137 0
-172 -212 -176 0
-172 -212 -215 0
-172 -137 -176 0
-172 -137 -215 0
-172 -176 -215 0
-172 131 170 209 134 212 137 176 215 0
-173 -132 -171 -210 -135 0
-173 -132 -171 -210 -213 0
-173 -132 -171 -210 -138 0
-173 -132 -171 -210 -177 0
-173 -132 -171 -210 -216 0
-173 -132 -171 -135 -213 0
-173 -132 -171 -135 -138 0
-173 -132 -171 -135 -177 0
-173 -132 -171 -135 -216 0
-173 -132 -171 -213 -138 0
-173 -132 -171 -213 -177 0
-173 -132 -171 -213 -216 0
-173 -132 -171 -138 -177 0
-173 -132 -171 -138 -216 0
-173 -132 -171 -177 -216 0
-173 -132 -210 -135 -213 0
-173 -132 -210 -135 -138 0
-173 -132 -210 -135 -177 0
-173 -132 -210 -135 -216 0
-173 -132 -210 -213 -138 0
-173 -132 -210 -213 -177 0
-173 -132 -210 -213 -216 0
-173 -132 -210 -138 -177 0
-173 -132 -210 -138 -216 0
-173 -132 -210 -177 -216 0
-173 -132 -135 -213 -138 0
-173 -132 -135 -213 -177 0
-173 -132 -135 -213 -216 0
-173 -132 -135 -138 -177 0
-173 -132 -135 -138 -216 0
-173 -132 -135 -177 -216 0
-173 -132 -213 -138 -177 0
-173 -132 -213 -138 -216 0
-173 -132 -213 -177 -216 0
-173 -132 -138 -177 -216 0
-173 -171 -210 -135 -213 0
-173 -171 -210 -135 -138 0
-173 -171 -210 -135 -177 0
-173 -171 -210 -135 -216 0
-173 -171 -210 -213 -138 0
-173 -171 -210 -213 -177 0
-173 -171 -210 -213 -216 0
-173 -171 -210 -138 -177 0
-173 -171 -210 -138 -216 0
-173 -171 -210 -177 -216 0
-173 -171 -135 -213 -138 0
-173 -171 -135 -213 -177 0
-173 -171 -135 -213 -216 0
-173 -171 -135 -138 -177 0
-173 -171 -135 -138 -216 0
-173 -171 -135 -177 -216 0
-173 -171 -213 -138 -177 0
-173 -171 -213 -138 -216 0
-173 -171 -213 -177 -216 0
-173 -171 -138 -177 -216 0
-173 -210 -135 -213 -138 0
-173 -210 -135 -213 -177 0
-173 -210 -135 -213 -216 0
-173 -210 -135 -138 -177 0
-173 -210 -135 -138 -216 0
-173 -210 -135 -177 -216 0
-173 -210 -213 -138 -177 0
-173 -210 -213 -138 -216 0
-173 -210 -213 -177 -216 0
-173 -210 -138 -177 -216 0
-173 -135 -213 -138 -177 0
-173 -135 -213 -138 -216 0
-173 -135 -213 -177 -216 0
-173 -135 -138 -177 -216 0
-173 -213 -138 -177 -216 0
-173 132 171 210 135 213 138 0
-173 132 171 210 135 213 177 0
-173 132 171 210 135 213 216 0
-173 132 171 210 135 138 177 0
-173 132 171 210 135 138 216 0
-173 132 171 210 135 177 216 0
-173 132 171 210 213 138 177 0
-173 132 171 210 213 138 216 0
-173 132 171 210 213 177 216 0
-173 132 171 210 138 177 216 0
-173 132 171 135 213 138 177 0
-173 132 171 135 213 138 216 0
-173 132 171 135 213 177 216 0
-173 132 171 135 138 177 216 0
-173 132 171 213 138 177 216 0
-173 132 210 135 213 138 177 0
-173 132 210 135 213 138 216 0
-173 132 210 135 213 177 216 0
-173 132 210 135 138 177 216 0
-173 132 210 213 138 177 216 0
-173 132 135 213 138 177 216 0
-173 171 210 135 213 138 177 0
-173 171 210 135 213 138 216 0
-173 171 210 135 213 177 216 0
-173 171 210 135 138 177 216 0
-173 171 210 213 138 177 216 0
-173 171 135 213 138 177 216 0
-173 210 135 213 138 177 216 0
-174 -130 -169 -208 -133 -211 -136 -175 0
-174 -130 -169 -208 -133 -211 -136 -214 0
-174 -130 -169 -208 -133 -211 -175 -214 0
-174 -130 -169 -208 -133 -136 -175 -214 0
-174 -130 -169 -208 -211 -136 -175 -214 0
-174 -130 -169 -133 -211 -136 -175 -214 0
-174 -130 -208 -133 -211 -136 -175 -214 0
-174 -169 -208 -133 -211 -136 -175 -214 0
-174 130 169 208 0
-174 130 169 133 0
-174 130 169 211 0
-174 130 169 136 0
-174 130 169 175 0
-174 130 169 214 0
-174 130 208 133 0
-174 130 208 211 0
-174 130 208 136 0
-174 130 208 175 0
-174 130 208 214 0
-174 130 133 211 0
-174 130 133 136 0
-174 130 133 175 0
-174 130 133 214 0
-174 130 211 136 0
-174 130 211 175 0
-174 130 211 214 0
-174 130 136 175 0
-174 130 136 214 0
-174 130 175 214 0
-174 169 208 133 0
-174 169 208 211 0
-174 169 208 136 0
-174 169 208 175 0
-174 169 208 214 0
-174 169 133 211 0
-174 169 133 136 0
-174 169 133 175 0
-174 169 133 214 0
-174 169 211 136 0
-174 169 211 175 0
-174 169 211 214 0
-174 169 136 175 0
-174 169 136 214 0
-174 169 175 214 0
-174 208 133 211 0
-174 208 133 136 0
-174 208 133 175 0
-174 208 133 214 0
-174 208 211 136 0
-174 208 211 175 0
-174 208 211 214 0
-174 208 136 175 0
-174 208 136 214 0
-174 208 175 214 0
-174 133 211 136 0
-174 133 211 175 0
-174 133 211 214 0
-174 133 136 175 0
-174 133 136 214 0
-174 133 175 214 0
-174 211 136 175 0
-174 211 136 214 0
-174 211 175 214 0
-174 136 175 214 0
-175 -176 0
-175 -177 0
-176 -177 0
-175 -134 -173 0
-175 -134 -212 0
-175 -134 -137 0
-175 -134 -215 0
-175 -134 -140 0
-175 -134 -179 0
-175 -134 -218 0
-175 -173 -212 0
-175 -173 -137 0
-175 -173 -215 0
-175 -173 -140 0
-175 -173 -179 0
-175 -173 -218 0
-175 -212 -137 0
-175 -212 -215 0
-175 -212 -140 0
-175 -212 -179 0
-175 -212 -218 0
-175 -137 -215 0
-175 -137 -140 0
-175 -137 -179 0
-175 -137 -218 0
-175 -215 -140 0
-175 -215 -179 0
-175 -215 -218 0
-175 -140 -179 0
-175 -140 -218 0
-175 -179 -218 0
-175 134 173 212 137 215 140 179 218 0
-176 -135 -174 -213 -138 0
-176 -135 -174 -213 -216 0
-176 -135 -174 -213 -141 0
-176 -135 -174 -213 -180 0
-176 -135 -174 -213 -219 0
-176 -135 -174 -138 -216 0
-176 -135 -174 -138 -141 0
-176 -135 -174 -138 -180 0
-176 -135 -174 -138 -219 0
-176 -135 -174 -216 -141 0
-176 -135 -174 -216 -180 0
-176 -135 -174 -216 -219 0
-176 -135 -174 -141 -180 0
-176 -135 -174 -141 -219 0
-176 -135 -174 -180 -219 0
-176 -135 -213 -138 -216 0
-176 -135 -213 -138 -141 0
-176 -135 -213 -138 -180 0
-176 -135 -213 -138 -219 0
-176 -135 -213 -216 -141 0
-176 -135 -213 -216 -180 0
-176 -135 -213 -216 -219 0
-176 -135 -213 -141 -180 0
-176 -135 -213 -141 -219 0
-176 -135 -213 -180 -219 0
-176 -135 -138 -216 -141 0
-176 -135 -138 -216 -180 0
-176 -135 -138 -216 -219 0
-176 -135 -138 -141 -180 0
-176 -135 -138 -141 -219 0
-176 -135 -138 -180 -219 0
-176 -135 -216 -141 -180 0
-176 -135 -216 -141 -219 0
-176 -135 -216 -180 -219 0
-176 -135 -141 -180 -219 0
-176 -174 -213 -138 -216 0
-176 -174 -213 -138 -141 0
-176 -174 -213 -138 -180 0
-176 -174 -213 -138 -219 0
-176 -174 -213 -216 -141 0
-176 -174 -213 -216 -180 0
-176 -174 -213 -216 -219 0
-176 -174 -213 -141 -180 0
-176 -174 -213 -141 -219 0
-176 -174 -213 -180 -219 0
-176 -174 -138 -216 -141 0
-176 -174 -138 -216 -180 0
-176 -174 -138 -216 -219 0
-176 -174 -138 -141 -180 0
-176 -174 -138 -141 -219 0
-176 -174 -138 -180 -219 0
-176 -174 -216 -141 -180 0
-176 -174 -216 -141 -219 0
-176 -174 -216 -180 -219 0
-176 -174 -141 -180 -219 0
-176 -213 -138 -216 -141 0
-176 -213 -138 -216 -180 0
-176 -213 -138 -216 -219 0
-176 -213 -138 -141 -180 0
-176 -213 -138 -141 -219 0
-176 -213 -138 -180 -219 0
-176 -213 -216 -141 -180 0
-176 -213 -216 -141 -219 0
-176 -213 -216 -180 -219 0
-176 -213 -141 -180 -219 0
-176 -138 -216 -141 -180 0
-176 -138 -216 -141 -219 0
-176 -138 -216 -180 -219 0
-176 -138 -141 -180 -219 0
-176 -216 -141 -180 -219 0
-176 135 174 213 138 216 141 0
-176 135 174 213 138 216 180 0
-176 135 174 213 138 216 219 0
-176 135 174 213 138 141 180 0
-176 135 174 213 138 141 219 0
-176 135 174 213 138 180 219 0
-176 135 174 213 216 141 180 0
-176 135 174 213 216 141 219 0
-176 135 174 213 216 180 219 0
-176 135 174 213 141 180 219 0
-176 135 174 138 216 141 180 0
-176 135 174 138 216 141 219 0
-176 135 174 138 216 180 219 0
-176 135 174 138 141 180 219 0
-176 135 174 216 141 180 219 0
-176 135 213 138 216 141 180 0
-176 135 213 138 216 141 219 0
-176 135 213 138 216 180 219 0
-176 135 213 138 141 180 219 0
-176 135 213 216 141 180 219 0
-176 135 138 216 141 180 219 0
-176 174 213 138 216 141 180 0
-176 174 213 138 216 141 219 0
-176 174 213 138 216 180 219 0
-176 174 213 138 141 180 219 0
-176 174 213 216 141 180 219 0
-176 174 138 216 141 180 219 0
-176 213 138 216 141 180 219 0
-177 -133 -172 -211 -136 -214 -139 -178 0
-177 -133 -172 -211 -136 -214 -139 -217 0
-177 -133 -172 -211 -136 -214 -178 -217 0
-177 -133 -172 -211 -136 -139 -178 -217 0
-177 -133 -172 -211 -214 -139 -178 -217 0
-177 -133 -172 -136 -214 -139 -178 -217 0
-177 -133 -211 -136 -214 -139 -178 -217 0
-177 -172 -211 -136 -214 -139 -178 -217 0
-177 133 172 211 0
-177 133 172 136 0
-177 133 172 214 0
-177 133 172 139 0
-177 133 172 178 0
-177 133 172 217 0
-177 133 211 136 0
-177 133 211 214 0
-177 133 211 139 0
-177 133 211 178 0
-177 133 211 217 0
-177 133 136 214 0
-177 133 136 139 0
-177 133 136 178 0
-177 133 136 217 0
-177 133 214 139 0
-177 133 214 178 0
-177 133 214 217 0
-177 133 139 178 0
-177 133 139 217 0
-177 133 178 217 0
-177 172 211 136 0
-177 172 211 214 0
-177 172 211 139 0
-177 172 211 178 0
-177 172 211 217 0
-177 172 136 214 0
-177 172 136 139 0
-177 172 136 178 0
-177 172 136 217 0
-177 172 214 139 0
-177 172 214 178 0
-177 172 214 217 0
-177 172 139 178 0
-177 172 139 217 0
-177 172 178 217 0
-177 211 136 214 0
-177 211 136 139 0
-177 211 136 178 0
-177 211 136 217 0
-177 211 214 139 0
-177 211 214 178 0
-177 211 214 217 0
-177 211 139 178 0
-177 211 139 217 0
-177 211 178 217 0
-177 136 214 139 0
-177 136 214 178 0
-177 136 214 217 0
-177 136 139 178 0
-177 136 139 217 0
-177 136 178 217 0
-177 214 139 178 0
-177 214 139 217 0
-177 214 178 217 0
-177 139 178 217 0
-178 -179 0
-178 -180 0
-179 -180 0
-178 -137 -176 0
-178 -137 -215 0
-178 -137 -140 0
-178 -137 -218 0
-178 -137 -143 0
-178 -137 -182 0
-178 -137 -221 0
-178 -176 -215 0
-178 -176 -140 0
-178 -176 -218 0
-178 -176 -143 0
-178 -176 -182 0
-178 -176 -221 0
-178 -215 -140 0
-178 -215 -218 0
-178 -215 -143 0
-178 -215 -182 0
-178 -215 -221 0
-178 -140 -218 0
-178 -140 -143 0
-178 -140 -182 0
-178 -140 -221 0
-178 -218 -143 0
-178 -218 -182 0
-178 -218 -221 0
-178 -143 -182 0
-178 -143 -221 0
-178 -182 -221 0
-178 137 176 215 140 218 143 182 221 0
-179 -138 -177 -216 -141 0
-179 -138 -177 -216 -219 0
-179 -138 -177 -216 -144 0
-179 -138 -177 -216 -183 0
-179 -138 -177 -216 -222 0
-179 -138 -177 -141 -219 0
-179 -138 -177 -141 -144 0
-179 -138 -177 -141 -183 0
-179 -138 -177 -141 -222 0
-179 -138 -177 -219 -144 0
-179 -138 -177 -219 -183 0
-179 -138 -177 -219 -222 0
-179 -138 -177 -144 -183 0
-179 -138 -177 -144 -222 0
-179 -138 -177 -183 -222 0
-179 -138 -216 -141 -219 0
-179 -138 -216 -141 -144 0
-179 -138 -216 -141 -183 0
-179 -138 -216 -141 -222 0
-179 -138 -216 -219 -144 0
-179 -138 -216 -219 -183 0
-179 -138 -216 -219 -222 0
-179 -138 -216 -144 -183 0
-179 -138 -216 -144 -222 0
-179 -138 -216 -183 -222 0
-179 -138 -141 -219 -144 0
-179 -138 -141 -219 -183 0
-179 -138 -141 -219 -222 0
-179 -138 -141 -144 -183 0
-179 -138 -141 -144 -222 0
-179 -138 -141 -183 -222 0
-179 -138 -219 -144 -183 0
-179 -138 -219 -144 -222 0
-179 -138 -219 -183 -222 0
-179 -138 -144 -183 -222 0
-179 -177 -216 -141 -219 0
-179 -177 -216 -141 -144 0
-179 -177 -216 -141 -183 0
-179 -177 -216 -141 -222 0
-179 -177 -216 -219 -144 0
-179 -177 -216 -219 -183 0
-179 -177 -216 -219 -222 0
-179 -177 -216 -144 -183 0
-179 -177 -216 -144 -222 0
-179 -177 -216 -183 -222 0
-179 -177 -141 -219 -144 0
-179 -177 -141 -219 -183 0
-179 -177 -141 -219 -222 0
-179 -177 -141 -144 -183 0
-179 -177 -141 -144 -222 0
-179 -177 -141 -183 -222 0
-179 -177 -219 -144 -183 0
-179 -177 -219 -144 -222 0
-179 -177 -219 -183 -222 0
-179 -177 -144 -183 -222 0
-179 -216 -141 -219 -144 0
-179 -216 -141 -219 -183 0
-179 -216 -141 -219 -222 0
-179 -216 -141 -144 -183 0
-179 -216 -141 -144 -222 0
-179 -216 -141 -183 -222 0
-179 -216 -219 -144 -183 0
-179 -216 -219 -144 -222 0
-179 -216 -219 -183 -222 0
-179 -216 -144 -183 -222 0
-179 -141 -219 -144 -183 0
-179 -141 -219 -144 -222 0
-179 -141 -219 -183 -222 0
-179 -141 -144 -183 -222 0
-179 -219 -144 -183 -222 0
-179 138 177 216 141 219 144 0
-179 138 177 216 141 219 183 0
-179 138 177 216 141 219 222 0
-179 138 177 216 141 144 183 0
-179 138 177 216 141 144 222 0
-179 138 177 216 141 183 222 0
-179 138 177 216 219 144 183 0
-179 138 177 216 219 144 222 0
-179 138 177 216 219 183 222 0
-179 138 177 216 144 183 222 0
-179 138 177 141 219 144 183 0
-179 138 177 141 219 144 222 0
-179 138 177 141 219 183 222 0
-179 138 177 141 144 183 222 0
-179 138 177 219 144 183 222 0
-179 138 216 141 219 144 183 0
-179 138 216 141 219 144 222 0
-179 138 216 141 219 183 222 0
-179 138 216 141 144 183 222 0
-179 138 216 219 144 183 222 0
-179 138 141 219 144 183 222 0
-179 177 216 141 219 144 183 0
-179 177 216 141 219 144 222 0
-179 177 216 141 219 183 222 0
-179 177 216 141 144 183 222 0
-179 177 216 219 144 183 222 0
-179 177 141 219 144 183 222 0
-179 216 141 219 144 183 222 0
-180 -136 -175 -214 -139 -217 -142 -181 0
-180 -136 -175 -214 -139 -217 -142 -220 0
-180 -136 -175 -214 -139 -217 -181 -220 0
-180 -136 -175 -214 -139 -142 -181 -220 0
-180 -136 -175 -214 -217 -142 -181 -220 0
-180 -136 -175 -139 -217 -142 -181 -220 0
-180 -136 -214 -139 -217 -142 -181 -220 0
-180 -175 -214 -139 -217 -142 -181 -220 0
-180 136 175 214 0
-180 136 175 139 0
-180 136 175 217 0
-180 136 175 142 0
-180 136 175 181 0
-180 136 175 220 0
-180 136 214 139 0
-180 136 214 217 0
-180 136 214 142 0
-180 136 214 181 0
-180 136 214 220 0
-180 136 139 217 0
-180 136 139 142 0
-180 136 139 181 0
-180 136 139 220 0
-180 136 217 142 0
-180 136 217 181 0
-180 136 217 220 0
-180 136 142 181 0
-180 136 142 220 0
-180 136 181 220 0
-180 175 214 139 0
-180 175 214 217 0
-180 175 214 142 0
-180 175 214 181 0
-180 175 214 220 0
-180 175 139 217 0
-180 175 139 142 0
-180 175 139 181 0
-180 175 139 220 0
-180 175 217 142 0
-180 175 217 181 0
-180 175 217 220 0
-180 175 142 181 0
-180 175 142 220 0
-180 175 181 220 0
-180 214 139 217 0
-180 214 139 142 0
-180 214 139 181 0
-180 214 139 220 0
-180 214 217 142 0
-180 214 217 181 0
-180 214 217 220 0
-180 214 142 181 0
-180 214 142 220 0
-180 214 181 220 0
-180 139 217 142 0
-180 139 217 181 0
-180 139 217 220 0
-180 139 142 181 0
-180 139 142 220 0
-180 139 181 220 0
-180 217 142 181 0
-180 217 142 220 0
-180 217 181 220 0
-180 142 181 220 0
-181 -182 0
-181 -183 0
-182 -183 0
-181 -140 -179 0
-181 -140 -218 0
-181 -140 -143 0
-181 -140 -221 0
-181 -140 -146 0
-181 -140 -185 0
-181 -140 -224 0
-181 -179 -218 0
-181 -179 -143 0
-181 -179 -221 0
-181 -179 -146 0
-181 -179 -185 0
-181 -179 -224 0
-181 -218 -143 0
-181 -218 -221 0
-181 -218 -146 0
-181 -218 -185 0
-181 -218 -224 0
-181 -143 -221 0
-181 -143 -146 0
-181 -143 -185 0
-181 -143 -224 0
-181 -221 -146 0
-181 -221 -185 0
-181 -221 -224 0
-181 -146 -185 0
-181 -146 -224 0
-181 -185 -224 0
-181 140 179 218 143 221 146 185 224 0
-182 -141 -180 -219 -144 0
-182 -141 -180 -219 -222 0
-182 -141 -180 -219 -147 0
-182 -141 -180 -219 -186 0
-182 -141 -180 -219 -225 0
-182 -141 -180 -144 -222 0
-182 -141 -180 -144 -147 0
-182 -141 -180 -144 -186 0
-182 -141 -180 -144 -225 0
-182 -141 -180 -222 -147 0
-182 -141 -180 -222 -186 0
-182 -141 -180 -222 -225 0
-182 -141 -180 -147 -186 0
-182 -141 -180 -147 -225 0
-182 -141 -180 -186 -225 0
-182 -141 -219 -144 -222 0
-182 -141 -219 -144 -147 0
-182 -141 -219 -144 -186 0
-182 -141 -219 -144 -225 0
-182 -141 -219 -222 -147 0
-182 -141 -219 -222 -186 0
-182 -141 -219 -222 -225 0
-182 -141 -219 -147 -186 0
-182 -141 -219 -147 -225 0
-182 -141 -219 -186 -225 0
-182 -141 -144 -222 -147 0
-182 -141 -144 -222 -186 0
-182 -141 -144 -222 -225 0
-182 -141 -144 -147 -186 0
-182 -141 -144 -147 -225 0
-182 -141 -144 -186 -225 0
-182 -141 -222 -147 -186 0
-182 -141 -222 -147 -225 0
-182 -141 -222 -186 -225 0
-182 -141 -147 -186 -225 0
-182 -180 -219 -144 -222 0
-182 -180 -219 -144 -147 0
-182 -180 -219 -144 -186 0
-182 -180 -219 -144 -225 0
-182 -180 -219 -222 -147 0
-182 -180 -219 -222 -186 0
-182 -180 -219 -222 -225 0
-182 -180 -219 -147 -186 0
-182 -180 -219 -147 -225 0
-182 -180 -219 -186 -225 0
-182 -180 -144 -222 -147 0
-182 -180 -144 -222 -186 0
-182 -180 -144 -222 -225 0
-182 -180 -144 -147 -186 0
-182 -180 -144 -147 -225 0
-182 -180 -144 -186 -225 0
-182 -180 -222 -147 -186 0
-182 -180 -222 -147 -225 0
-182 -180 -222 -186 -225 0
-182 -180 -147 -186 -225 0
-182 -219 -144 -222 -147 0
-182 -219 -144 -222 -186 0
-182 -219 -144 -222 -225 0
-182 -219 -144 -147 -186 0
-182 -219 -144 -147 -225 0
-182 -219 -144 -186 -225 0
-182 -219 -222 -147 -186 0
-182 -219 -222 -147 -225 0
-182 -219 -222 -186 -225 0
-182 -219 -147 -186 -225 0
-182 -144 -222 -147 -186 0
-182 -144 -222 -147 -225 0
-182 -144 -222 -186 -225 0
-182 -144 -147 -186 -225 0
-182 -222 -147 -186 -225 0
-182 141 180 219 144 222 147 0
-182 141 180 219 144 222 186 0
-182 141 180 219 144 222 225 0
-182 141 180 219 144 147 186 0
-182 141 180 219 144 147 225 0
-182 141 180 219 144 186 225 0
-182 141 180 219 222 147 186 0
-182 141 180 219 222 147 225 0
-182 141 180 219 222 186 225 0
-182 141 180 219 147 186 225 0
-182 141 180 144 222 147 186 0
-182 141 180 144 222 147 225 0
-182 141 180 144 222 186 225 0
-182 141 180 144 147 186 225 0
-182 141 180 222 147 186 225 0
-182 141 219 144 222 147 186 0
-182 141 219 144 222 147 225 0
-182 141 219 144 222 186 225 0
-182 141 219 144 147 186 225 0
-182 141 219 222 147 186 225 0
-182 141 144 222 147 186 225 0
-182 180 219 144 222 147 186 0
-182 180 219 144 222 147 225 0
-182 180 219 144 222 186 225 0
-182 180 219 144 147 186 225 0
-182 180 219 222 147 186 225 0
-182 180 144 222 147 186 225 0
-182 219 144 222 147 186 225 0
-183 -139 -178 -217 -142 -220 -145 -184 0
-183 -139 -178 -217 -142 -220 -145 -223 0
-183 -139 -178 -217 -142 -220 -184 -223 0
-183 -139 -178 -217 -142 -145 -184 -223 0
-183 -139 -178 -217 -220 -145 -184 -223 0
-183 -139 -178 -142 -220 -145 -184 -223 0
-183 -139 -217 -142 -220 -145 -184 -223 0
-183 -178 -217 -142 -220 -145 -184 -223 0
-183 139 178 217 0
-183 139 178 142 0
-183 139 178 220 0
-183 139 178 145 0
-183 139 178 184 0
-183 139 178 223 0
-183 139 217 142 0
-183 139 217 220 0
-183 139 217 145 0
-183 139 217 184 0
-183 139 217 223 0
-183 139 142 220 0
-183 139 142 145 0
-183 139 142 184 0
-183 139 142 223 0
-183 139 220 145 0
-183 139 220 184 0
-183 139 220 223 0
-183 139 145 184 0
-183 139 145 223 0
-183 139 184 223 0
-183 178 217 142 0
-183 178 217 220 0
-183 178 217 145 0
-183 178 217 184 0
-183 178 217 223 0
-183 178 142 220 0
-183 178 142 145 0
-183 178 142 184 0
-183 178 142 223 0
-183 178 220 145 0
-183 178 220 184 0
-183 178 220 223 0
-183 178 145 184 0
-183 178 145 223 0
-183 178 184 223 0
-183 217 142 220 0
-183 217 142 145 0
-183 217 142 184 0
-183 217 142 223 0
-183 217 220 145 0
-183 217 220 184 0
-183 217 220 223 0
-183 217 145 184 0
-183 217 145 223 0
-183 217 184 223 0
-183 142 220 145 0
-183 142 220 184 0
-183 142 220 223 0
-183 142 145 184 0
-183 142 145 223 0
-183 142 184 223 0
-183 220 145 184 0
-183 220 145 223 0
-183 220 184 223 0
-183 145 184 223 0
-184 -185 0
-184 -186 0
-185 -186 0
-184 -143 -182 0
-184 -143 -221 0
-184 -143 -146 0
-184 -143 -224 0
-184 -143 -149 0
-184 -143 -188 0
-184 -143 -227 0
-184 -182 -221 0
-184 -182 -146 0
-184 -182 -224 0
-184 -182 -149 0
-184 -182 -188 0
-184 -182 -227 0
-184 -221 -146 0
-184 -221 -224 0
-184 -221 -149 0
-184 -221 -188 0
-184 -221 -227 0
-184 -146 -224 0
-184 -146 -149 0
-184 -146 -188 0
-184 -146 -227 0
-184 -224 -149 0
-184 -224 -188 0
-184 -224 -227 0
-184 -149 -188 0
-184 -149 -227 0
-184 -188 -227 0
-184 143 182 221 146 224 149 188 227 0
-185 -144 -183 -222 -147 0
-185 -144 -183 -222 -225 0
-185 -144 -183 -222 -150 0
-185 -144 -183 -222 -189 0
-185 -144 -183 -222 -228 0
-185 -144 -183 -147 -225 0
-185 -144 -183 -147 -150 0
-185 -144 -183 -147 -189 0
-185 -144 -183 -147 -228 0
-185 -144 -183 -225 -150 0
-185 -144 -183 -225 -189 0
-185 -144 -183 -225 -228 0
-185 -144 -183 -150 -189 0
-185 -144 -183 -150 -228 0
-185 -144 -183 -189 -228 0
-185 -144 -222 -147 -225 0
-185 -144 -222 -147 -150 0
-185 -144 -222 -147 -189 0
-185 -144 -222 -147 -228 0
-185 -144 -222 -225 -150 0
-185 -144 -222 -225 -189 0
-185 -144 -222 -225 -228 0
-185 -144 -222 -150 -189 0
-185 -144 -222 -150 -228 0
-185 -144 -222 -189 -228 0
-185 -144 -147 -225 -150 0
-185 -144 -147 -225 -189 0
-185 -144 -147 -225 -228 0
-185 -144 -147 -150 -189 0
-185 -144 -147 -150 -228 0
-185 -144 -147 -189 -228 0
-185 -144 -225 -150 -189 0
-185 -144 -225 -150 -228 0
-185 -144 -225 -189 -228 0
-185 -144 -150 -189 -228 0
-185 -183 -222 -147 -225 0
-185 -183 -222 -147 -150 0
-185 -183 -222 -147 -189 0
-185 -183 -222 -147 -228 0
-185 -183 -222 -225 -150 0
-185 -183 -222 -225 -189 0
-185 -183 -222 -225 -228 0
-185 -183 -222 -150 -189 0
-185 -183 -222 -150 -228 0
-185 -183 -222 -189 -228 0
-185 -183 -147 -225 -150 0
-185 -183 -147 -225 -189 0
-185 -183 -147 -225 -228 0
-185 -183 -147 -150 -189 0
-185 -183 -147 -150 -228 0
-185 -183 -147 -189 -228 0
-185 -183 -225 -150 -189 0
-185 -183 -225 -150 -228 0
-185 -183 -225 -189 -228 0
-185 -183 -150 -189 -228 0
-185 -222 -147 -225 -150 0
-185 -222 -147 -225 -189 0
-185 -222 -147 -225 -228 0
-185 -222 -147 -150 -189 0
-185 -222 -147 -150 -228 0
-185 -222 -147 -189 -228 0
-185 -222 -225 -150 -189 0
-185 -222 -225 -150 -228 0
-185 -222 -225 -189 -228 0
-185 -222 -150 -189 -228 0
-185 -147 -225 -150 -189 0
-185 -147 -225 -150 -228 0
-185 -147 -225 -189 -228 0
-185 -147 -150 -189 -228 0
-185 -225 -150 -189 -228 0
-185 144 183 222 147 225 150 0
-185 144 183 222 147 225 189 0
-185 144 183 222 147 225 228 0
-185 144 183 222 147 150 189 0
-185 144 183 222 147 150 228 0
-185 144 183 222 147 189 228 0
-185 144 183 222 225 150 189 0
-185 144 183 222 225 150 228 0
-185 144 183 222 225 189 228 0
-185 144 183 222 150 189 228 0
-185 144 183 147 225 150 189 0
-185 144 183 147 225 150 228 0
-185 144 183 147 225 189 228 0
-185 144 183 147 150 189 228 0
-185 144 183 225 150 189 228 0
-185 144 222 147 225 150 189 0
-185 144 222 147 225 150 228 0
-185 144 222 147 225 189 228 0
-185 144 222 147 150 189 228 0
-185 144 222 225 150 189 228 0
-185 144 147 225 150 189 228 0
-185 183 222 147 225 150 189 0
-185 183 222 147 225 150 228 0
-185 183 222 147 225 189 228 0
-185 183 222 147 150 189 228 0
-185 183 222 225 150 189 228 0
-185 183 147 225 150 189 228 0
-185 222 147 225 150 189 228 0
-186 -142 -181 -220 -145 -223 -148 -187 0
-186 -142 -181 -220 -145 -223 -148 -226 0
-186 -142 -181 -220 -145 -223 -187 -226 0
-186 -142 -181 -220 -145 -148 -187 -226 0
-186 -142 -181 -220 -223 -148 -187 -226 0
-186 -142 -181 -145 -223 -148 -187 -226 0
-186 -142 -220 -145 -223 -148 -187 -226 0
-186 -181 -220 -145 -223 -148 -187 -226 0
-186 142 181 220 0
-186 142 181 145 0
-186 142 181 223 0
-186 142 181 148 0
-186 142 181 187 0
-186 142 181 226 0
-186 142 220 145 0
-186 142 220 223 0
-186 142 220 148 0
-186 142 220 187 0
-186 142 220 226 0
-186 142 145 223 0
-186 142 145 148 0
-186 142 145 187 0
-186 142 145 226 0
-186 142 223 148 0
-186 142 223 187 0
-186 142 223 226 0
-186 142 148 187 0
-186 142 148 226 0
-186 142 187 226 0
-186 181 220 145 0
-186 181 220 223 0
-186 181 220 148 0
-186 181 220 187 0
-186 181 220 226 0
-186 181 145 223 0
-186 181 145 148 0
-186 181 145 187 0
-186 181 145 226 0
-186 181 223 148 0
-186 181 223 187 0
-186 181 223 226 0
-186 181 148 187 0
-186 181 148 226 0
-186 181 187 226 0
-186 220 145 223 0
-186 220 145 148 0
-186 220 145 187 0
-186 220 145 226 0
-186 220 223 148 0
-186 220 223 187 0
-186 220 223 226 0
-186 220 148 187 0
-186 220 148 226 0
-186 220 187 226 0
-186 145 223 148 0
-186 145 223 187 0
-186 145 223 226 0
-186 145 148 187 0
-186 145 148 226 0
-186 145 187 226 0
-186 223 148 187 0
-186 223 148 226 0
-186 223 187 226 0
-186 148 187 226 0
-187 -188 0
-187 -189 0
-188 -189 0
-187 -146 -185 0
-187 -146 -224 0
-187 -146 -149 0
-187 -146 -227 0
-187 -146 -152 0
-187 -146 -191 0
-187 -146 -230 0
-187 -185 -224 0
-187 -185 -149 0
-187 -185 -227 0
-187 -185 -152 0
-187 -185 -191 0
-187 -185 -230 0
-187 -224 -149 0
-187 -224 -227 0
-187 -224 -152 0
-187 -224 -191 0
-187 -224 -230 0
-187 -149 -227 0
-187 -149 -152 0
-187 -149 -191 0
-187 -149 -230 0
-187 -227 -152 0
-187 -227 -191 0
-187 -227 -230 0
-187 -152 -191 0
-187 -152 -230 0
-187 -191 -230 0
-187 146 185 224 149 227 152 191 230 0
-188 -147 -186 -225 -150 0
-188 -147 -186 -225 -228 0
-188 -147 -186 -225 -153 0
-188 -147 -186 -225 -192 0
-188 -147 -186 -225 -231 0
-188 -147 -186 -150 -228 0
-188 -147 -186 -150 -153 0
-188 -147 -186 -150 -192 0
-188 -147 -186 -150 -231 0
-188 -147 -186 -228 -153 0
-188 -147 -186 -228 -192 0
-188 -147 -186 -228 -231 0
-188 -147 -186 -153 -192 0
-188 -147 -186 -153 -231 0
-188 -147 -186 -192 -231 0
-188 -147 -225 -150 -228 0
-188 -147 -225 -150 -153 0
-188 -147 -225 -150 -192 0
-188 -147 -225 -150 -231 0
-188 -147 -225 -228 -153 0
-188 -147 -225 -228 -192 0
-188 -147 -225 -228 -231 0
-188 -147 -225 -153 -192 0
-188 -147 -225 -153 -231 0
-188 -147 -225 -192 -231 0
-188 -147 -150 -228 -153 0
-188 -147 -150 -228 -192 0
-188 -147 -150 -228 -231 0
-188 -147 -150 -153 -192 0
-188 -147 -150 -153 -231 0
-188 -147 -150 -192 -231 0
-188 -147 -228 -153 -192 0
-188 -147 -228 -153 -231 0
-188 -147 -228 -192 -231 0
-188 -147 -153 -192 -231 0
-188 -186 -225 -150 -228 0
-188 -186 -225 -150 -153 0
-188 -186 -225 -150 -192 0
-188 -186 -225 -150 -231 0
-188 -186 -225 -228 -153 0
-188 -186 -225 -228 -192 0
-188 -186 -225 -228 -231 0
-188 -186 -225 -153 -192 0
-188 -186 -225 -153 -231 0
-188 -186 -225 -192 -231 0
-188 -186 -150 -228 -153 0
-188 -186 -150 -228 -192 0
-188 -186 -150 -228 -231 0
-188 -186 -150 -153 -192 0
-188 -186 -150 -153 -231 0
-188 -186 -150 -192 -231 0
-188 -186 -228 -153 -192 0
-188 -186 -228 -153 -231 0
-188 -186 -228 -192 -231 0
-188 -186 -153 -192 -231 0
-188 -225 -150 -228 -153 0
-188 -225 -150 -228 -192 0
-188 -225 -150 -228 -231 0
-188 -225 -150 -153 -192 0
-188 -225 -150 -153 -231 0
-188 -225 -150 -192 -231 0
-188 -225 -228 -153 -192 0
-188 -225 -228 -153 -231 0
-188 -225 -228 -192 -231 0
-188 -225 -153 -192 -231 0
-188 -150 -228 -153 -192 0
-188 -150 -228 -153 -231 0
-188 -150 -228 -192 -231 0
-188 -150 -153 -192 -231 0
-188 -228 -153 -192 -231 0
-188 147 186 225 150 228 153 0
-188 147 186 225 150 228 192 0
-188 147 186 225 150 228 231 0
-188 147 186 225 150 153 192 0
-188 147 186 225 150 153 231 0
-188 147 186 225 150 192 231 0
-188 147 186 225 228 153 192 0
-188 147 186 225 228 153 231 0
-188 147 186 225 228 192 231 0
-188 147 186 225 153 192 231 0
-188 147 186 150 228 153 192 0
-188 147 186 150 228 153 231 0
-188 147 186 150 228 192 231 0
-188 147 186 150 153 192 231 0
-188 147 186 228 153 192 231 0
-188 147 225 150 228 153 192 0
-188 147 225 150 228 153 231 0
-188 147 225 150 228 192 231 0
-188 147 225 150 153 192 231 0
-188 147 225 228 153 192 231 0
-188 147 150 228 153 192 231 0
-188 186 225 150 228 153 192 0
-188 186 225 150 228 153 231 0
-188 186 225 150 228 192 231 0
-188 186 225 150 153 192 231 0
-188 186 225 228 153 192 231 0
-188 186 150 228 153 192 231 0
-188 225 150 228 153 192 231 0
-189 -145 -184 -223 -148 -226 -151 -190 0
-189 -145 -184 -223 -148 -226 -151 -229 0
-189 -145 -184 -223 -148 -226 -190 -229 0
-189 -145 -184 -223 -148 -151 -190 -229 0
-189 -145 -184 -223 -226 -151 -190 -229 0
-189 -145 -184 -148 -226 -151 -190 -229 0
-189 -145 -223 -148 -226 -151 -190 -229 0
-189 -184 -223 -148 -226 -151 -190 -229 0
-189 145 184 223 0
-189 145 184 148 0
-189 145 184 226 0
-189 145 184 151 0
-189 145 184 190 0
-189 145 184 229 0
-189 145 223 148 0
-189 145 223 226 0
-189 145 223 151 0
-189 145 223 190 0
-189 145 223 229 0
-189 145 148 226 0
-189 145 148 151 0
-189 145 148 190 0
-189 145 148 229 0
-189 145 226 151 0
-189 145 226 190 0
-189 145 226 229 0
-189 145 151 190 0
-189 145 151 229 0
-189 145 190 229 0
-189 184 223 148 0
-189 184 223 226 0
-189 184 223 151 0
-189 184 223 190 0
-189 184 223 229 0
-189 184 148 226 0
-189 184 148 151 0
-189 184 148 190 0
-189 184 148 229 0
-189 184 226 151 0
-189 184 226 190 0
-189 184 226 229 0
-189 184 151 190 0
-189 184 151 229 0
-189 184 190 229 0
-189 223 148 226 0
-189 223 148 151 0
-189 223 148 190 0
-189 223 148 229 0
-189 223 226 151 0
-189 223 226 190 0
-189 223 226 229 0
-189 223 151 190 0
-189 223 151 229 0
-189 223 190 229 0
-189 148 226 151 0
-189 148 226 190 0
-189 148 226 229 0
-189 148 151 190 0
-189 148 151 229 0
-189 148 190 229 0
-189 226 151 190 0
-189 226 151 229 0
-189 226 190 229 0
-189 151 190 229 0
-190 -191 0
-190 -192 0
-191 -192 0
-190 -149 -188 0
-190 -149 -227 0
-190 -149 -152 0
-190 -149 -230 0
-190 -149 -155 0
-190 -149 -194 0
-190 -149 -233 0
-190 -188 -227 0
-190 -188 -152 0
-190 -188 -230 0
-190 -188 -155 0
-190 -188 -194 0
-190 -188 -233 0
-190 -227 -152 0
-190 -227 -230 0
-190 -227 -155 0
-190 -227 -194 0
-190 -227 -233 0
-190 -152 -230 0
-190 -152 -155 0
-190 -152 -194 0
-190 -152 -233 0
-190 -230 -155 0
-190 -230 -194 0
-190 -230 -233 0
-190 -155 -194 0
-190 -155 -233 0
-190 -194 -233 0
-190 149 188 227 152 230 155 194 233 0
-191 -150 -189 -228 -153 0
-191 -150 -189 -228 -231 0
-191 -150 -189 -228 -156 0
-191 -150 -189 -228 -195 0
-191 -150 -189 -228 -234 0
-191 -150 -189 -153 -231 0
-191 -150 -189 -153 -156 0
-191 -150 -189 -153 -195 0
-191 -150 -189 -153 -234 0
-191 -150 -189 -231 -156 0
-191 -150 -189 -231 -195 0
-191 -150 -189 -231 -234 0
-191 -150 -189 -156 -195 0
-191 -150 -189 -156 -234 0
-191 -150 -189 -195 -234 0
-191 -150 -228 -153 -231 0
-191 -150 -228 -153 -156 0
-191 -150 -228 -153 -195 0
-191 -150 -228 -153 -234 0
-191 -150 -228 -231 -156 0
-191 -150 -228 -231 -195 0
-191 -150 -228 -231 -234 0
-191 -150 -228 -156 -195 0
-191 -150 -228 -156 -234 0
-191 -150 -228 -195 -234 0
-191 -150 -153 -231 -156 0
-191 -150 -153 -231 -195 0
-191 -150 -153 -231 -234 0
-191 -150 -153 -156 -195 0
-191 -150 -153 -156 -234 0
-191 -150 -153 -195 -234 0
-191 -150 -231 -156 -195 0
-191 -150 -231 -156 -234 0
-191 -150 -231 -195 -234 0
-191 -150 -156 -195 -234 0
-191 -189 -228 -153 -231 0
-191 -189 -228 -153 -156 0
-191 -189 -228 -153 -195 0
-191 -189 -228 -153 -234 0
-191 -189 -228 -231 -156 0
-191 -189 -228 -231 -195 0
-191 -189 -228 -231 -234 0
-191 -189 -228 -156 -195 0
-191 -189 -228 -156 -234 0
-191 -189 -228 -195 -234 0
-191 -189 -153 -231 -156 0
-191 -189 -153 -231 -195 0
-191 -189 -153 -231 -234 0
-191 -189 -153 -156 -195 0
-191 -189 -153 -156 -234 0
-191 -189 -153 -195 -234 0
-191 -189 -231 -156 -195 0
-191 -189 -231 -156 -234 0
-191 -189 -231 -195 -234 0
-191 -189 -156 -195 -234 0
-191 -228 -153 -231 -156 0
-191 -228 -153 -231 -195 0
-191 -228 -153 -231 -234 0
-191 -228 -153 -156 -195 0
-191 -228 -153 -156 -234 0
-191 -228 -153 -195 -234 0
-191 -228 -231 -156 -195 0
-191 -228 -231 -156 -234 0
-191 -228 -231 -195 -234 0
-191 -228 -156 -195 -234 0
-191 -153 -231 -156 -195 0
-191 -153 -231 -156 -234 0
-191 -153 -231 -195 -234 0
-191 -153 -156 -195 -234 0
-191 -231 -156 -195 -234 0
-191 150 189 228 153 231 156 0
-191 150 189 228 153 231 195 0
-191 150 189 228 153 231 234 0
-191 150 189 228 153 156 195 0
-191 150 189 228 153 156 234 0
-191 150 189 228 153 195 234 0
-191 150 189 228 231 156 195 0
-191 150 189 228 231 156 234 0
-191 150 189 228 231 195 234 0
-191 150 189 228 156 195 234 0
-191 150 189 153 231 156 195 0
-191 150 189 153 231 156 234 0
-191 150 189 153 231 195 234 0
-191 150 189 153 156 195 234 0
-191 150 189 231 156 195 234 0
-191 150 228 153 231 156 195 0
-191 150 228 153 231 156 234 0
-191 150 228 153 231 195 234 0
-191 150 228 153 156 195 234 0
-191 150 228 231 156 195 234 0
-191 150 153 231 156 195 234 0
-191 189 228 153 231 156 195 0
-191 189 228 153 231 156 234 0
-191 189 228 153 231 195 234 0
-191 189 228 153 156 195 234 0
-191 189 228 231 156 195 234 0
-191 189 153 231 156 195 234 0
-191 228 153 231 156 195 234 0
-192 -148 -187 -226 -151 -229 -154 -193 0
-192 -148 -187 -226 -151 -229 -154 -232 0
-192 -148 -187 -226 -151 -229 -193 -232 0
-192 -148 -187 -226 -151 -154 -193 -232 0
-192 -148 -187 -226 -229 -154 -193 -232 0
-192 -148 -187 -151 -229 -154 -193 -232 0
-192 -148 -226 -151 -229 -154 -193 -232 0
-192 -187 -226 -151 -229 -154 -193 -232 0
-192 148 187 226 0
-192 148 187 151 0
-192 148 187 229 0
-192 148 187 154 0
-192 148 187 193 0
-192 148 187 232 0
-192 148 226 151 0
-192 148 226 229 0
-192 148 226 154 0
-192 148 226 193 0
-192 148 226 232 0
-192 148 151 229 0
-192 148 151 154 0
-192 148 151 193 0
-192 148 151 232 0
-192 148 229 154 0
-192 148 229 193 0
-192 148 229 232 0
-192 148 154 193 0
-192 148 154 232 0
-192 148 193 232 0
-192 187 226 151 0
-192 187 226 229 0
-192 187 226 154 0
-192 187 226 193 0
-192 187 226 232 0
-192 187 151 229 0
-192 187 151 154 0
-192 187 151 193 0
-192 187 151 232 0
-192 187 229 154 0
-192 187 229 193 0
-192 187 229 232 0
-192 187 154 193 0
-192 187 154 232 0
-192 187 193 232 0
-192 226 151 229 0
-192 226 151 154 0
-192 226 151 193 0
-192 226 151 232 0
-192 226 229 154 0
-192 226 229 193 0
-192 226 229 232 0
-192 226 154 193 0
-192 226 154 232 0
-192 226 193 232 0
-192 151 229 154 0
-192 151 229 193 0
-192 151 229 232 0
-192 151 154 193 0
-192 151 154 232 0
-192 151 193 232 0
-192 229 154 193 0
-192 229 154 232 0
-192 229 193 232 0
-192 154 193 232 0
-193 -194 0
-193 -195 0
-194 -195 0
-196 -197 0
-196 -198 0
-197 -198 0
-199 -200 0
-199 -201 0
-200 -201 0
-199 -158 -197 0
-199 -158 -236 0
-199 -158 -161 0
-199 -158 -239 0
-199 -158 -164 0
-199 -158 -203 0
-199 -158 -242 0
-199 -197 -236 0
-199 -197 -161 0
-199 -197 -239 0
-199 -197 -164 0
-199 -197 -203 0
-199 -197 -242 0
-199 -236 -161 0
-199 -236 -239 0
-199 -236 -164 0
-199 -236 -203 0
-199 -236 -242 0
-199 -161 -239 0
-199 -161 -164 0
-199 -161 -203 0
-199 -161 -242 0
-199 -239 -164 0
-199 -239 -203 0
-199 -239 -242 0
-199 -164 -203 0
-199 -164 -242 0
-199 -203 -242 0
-199 158 197 236 161 239 164 203 242 0
-200 -159 -198 -237 -162 0
-200 -159 -198 -237 -240 0
-200 -159 -198 -237 -165 0
-200 -159 -198 -237 -204 0
-200 -159 -198 -237 -243 0
-200 -159 -198 -162 -240 0
-200 -159 -198 -162 -165 0
-200 -159 -198 -162 -204 0
-200 -159 -198 -162 -243 0
-200 -159 -198 -240 -165 0
-200 -159 -198 -240 -204 0
-200 -159 -198 -240 -243 0
-200 -159 -198 -165 -204 0
-200 -159 -198 -165 -243 0
-200 -159 -198 -204 -243 0
-200 -159 -237 -162 -240 0
-200 -159 -237 -162 -165 0
-200 -159 -237 -162 -204 0
-200 -159 -237 -162 -243 0
-200 -159 -237 -240 -165 0
-200 -159 -237 -240 -204 0
-200 -159 -237 -240 -243 0
-200 -159 -237 -165 -204 0
-200 -159 -237 -165 -243 0
-200 -159 -237 -204 -243 0
-200 -159 -162 -240 -165 0
-200 -159 -162 -240 -204 0
-200 -159 -162 -240 -243 0
-200 -159 -162 -165 -204 0
-200 -159 -162 -165 -243 0
-200 -159 -162 -204 -243 0
-200 -159 -240 -165 -204 0
-200 -159 -240 -165 -243 0
-200 -159 -240 -204 -243 0
-200 -159 -165 -204 -243 0
-200 -198 -237 -162 -240 0
-200 -198 -237 -162 -165 0
-200 -198 -237 -162 -204 0
-200 -198 -237 -162 -243 0
-200 -198 -237 -240 -165 0
-200 -198 -237 -240 -204 0
-200 -198 -237 -240 -243 0
-200 -198 -237 -165 -204 0
-200 -198 -237 -165 -243 0
-200 -198 -237 -204 -243 0
-200 -198 -162 -240 -165 0
-200 -198 -162 -240 -204 0
-200 -198 -162 -240 -243 0
-200 -198 -162 -165 -204 0
-200 -198 -162 -165 -243 0
-200 -198 -162 -204 -243 0
-200 -198 -240 -165 -204 0
-200 -198 -240 -165 -243 0
-200 -198 -240 -204 -243 0
-200 -198 -165 -204 -243 0
-200 -237 -162 -240 -165 0
-200 -237 -162 -240 -204 0
-200 -237 -162 -240 -243 0
-200 -237 -162 -165 -204 0
-200 -237 -162 -165 -243 0
-200 -237 -162 -204 -243 0
-200 -237 -240 -165 -204 0
-200 -237 -240 -165 -243 0
-200 -237 -240 -204 -243 0
-200 -237 -165 -204 -243 0
-200 -162 -240 -165 -204 0
-200 -162 -240 -165 -243 0
-200 -162 -240 -204 -243 0
-200 -162 -165 -204 -243 0
-200 -240 -165 -204 -243 0
-200 159 198 237 162 240 165 0
-200 159 198 237 162 240 204 0
-200 159 198 237 162 240 243 0
-200 159 198 237 162 165 204 0
-200 159 198 237 162 165 243 0
-200 159 198 237 162 204 243 0
-200 159 198 237 240 165 204 0
-200 159 198 237 240 165 243 0
-200 159 198 237 240 204 243 0
-200 159 198 237 165 204 243 0
-200 159 198 162 240 165 204 0
-200 159 198 162 240 165 243 0
-200 159 198 162 240 204 243 0
-200 159 198 162 165 204 243 0
-200 159 198 240 165 204 243 0
-200 159 237 162 240 165 204 0
-200 159 237 162 240 165 243 0
-200 159 237 162 240 204 243 0
-200 159 237 162 165 204 243 0
-200 159 237 240 165 204 243 0
-200 159 162 240 165 204 243 0
-200 198 237 162 240 165 204 0
-200 198 237 162 240 165 243 0
-200 198 237 162 240 204 243 0
-200 198 237 162 165 204 243 0
-200 198 237 240 165 204 243 0
-200 198 162 240 165 204 243 0
-200 237 162 240 165 204 243 0
-201 -157 -196 -235 -160 -238 -163 -202 0
-201 -157 -196 -235 -160 -238 -163 -241 0
-201 -157 -196 -235 -160 -238 -202 -241 0
-201 -157 -196 -235 -160 -163 -202 -241 0
-201 -157 -196 -235 -238 -163 -202 -241 0
-201 -157 -196 -160 -238 -163 -202 -241 0
-201 -157 -235 -160 -238 -163 -202 -241 0
-201 -196 -235 -160 -238 -163 -202 -241 0
-201 157 196 235 0
-201 157 196 160 0
-201 157 196 238 0
-201 157 196 163 0
-201 157 196 202 0
-201 157 196 241 0
-201 157 235 160 0
-201 157 235 238 0
-201 157 235 163 0
-201 157 235 202 0
-201 157 235 241 0
-201 157 160 238 0
-201 157 160 163 0
-201 157 160 202 0
-201 157 160 241 0
-201 157 238 163 0
-201 157 238 202 0
-201 157 238 241 0
-201 157 163 202 0
-201 157 163 241 0
-201 157 202 241 0
-201 196 235 160 0
-201 196 235 238 0
-201 196 235 163 0
-201 196 235 202 0
-201 196 235 241 0
-201 196 160 238 0
-201 196 160 163 0
-201 196 160 202 0
-201 196 160 241 0
-201 196 238 163 0
-201 196 238 202 0
-201 196 238 241 0
-201 196 163 202 0
-201 196 163 241 0
-201 196 202 241 0
-201 235 160 238 0
-201 235 160 163 0
-201 235 160 202 0
-201 235 160 241 0
-201 235 238 163 0
-201 235 238 202 0
-201 235 238 241 0
-201 235 163 202 0
-201 235 163 241 0
-201 235 202 241 0
-201 160 238 163 0
-201 160 238 202 0
-201 160 238 241 0
-201 160 163 202 0
-201 160 163 241 0
-201 160 202 241 0
-201 238 163 202 0
-201 238 163 241 0
-201 238 202 241 0
-201 163 202 241 0
-202 -203 0
-202 -204 0
-203 -204 0
-202 -161 -200 0
-202 -161 -239 0
-202 -161 -164 0
-202 -161 -242 0
-202 -161 -167 0
-202 -161 -206 0
-202 -161 -245 0
-202 -200 -239 0
-202 -200 -164 0
-202 -200 -242 0
-202 -200 -167 0
-202 -200 -206 0
-202 -200 -245 0
-202 -239 -164 0
-202 -239 -242 0
-202 -239 -167 0
-202 -239 -206 0
-202 -239 -245 0
-202 -164 -242 0
-202 -164 -167 0
-202 -164 -206 0
-202 -164 -245 0
-202 -242 -167 0
-202 -242 -206 0
-202 -242 -245 0
-202 -167 -206 0
-202 -167 -245 0
-202 -206 -245 0
-202 161 200 239 164 242 167 206 245 0
-203 -162 -201 -240 -165 0
-203 -162 -201 -240 -243 0
-203 -162 -201 -240 -168 0
-203 -162 -201 -240 -207 0
-203 -162 -201 -240 -246 0
-203 -162 -201 -165 -243 0
-203 -162 -201 -165 -168 0
-203 -162 -201 -165 -207 0
-203 -162 -201 -165 -246 0
-203 -162 -201 -243 -168 0
-203 -162 -201 -243 -207 0
-203 -162 -201 -243 -246 0
-203 -162 -201 -168 -207 0
-203 -162 -201 -168 -246 0
-203 -162 -201 -207 -246 0
-203 -162 -240 -165 -243 0
-203 -162 -240 -165 -168 0
-203 -162 -240 -165 -207 0
-203 -162 -240 -165 -246 0
-203 -162 -240 -243 -168 0
-203 -162 -240 -243 -207 0
-203 -162 -240 -243 -246 0
-203 -162 -240 -168 -207 0
-203 -162 -240 -168 -246 0
-203 -162 -240 -207 -246 0
-203 -162 -165 -243 -168 0
-203 -162 -165 -243 -207 0
-203 -162 -165 -243 -246 0
-203 -162 -165 -168 -207 0
-203 -162 -165 -168 -246 0
-203 -162 -165 -207 -246 0
-203 -162 -243 -168 -207 0
-203 -162 -243 -168 -246 0
-203 -162 -243 -207 -246 0
-203 -162 -168 -207 -246 0
-203 -201 -240 -165 -243 0
-203 -201 -240 -165 -168 0
-203 -201 -240 -165 -207 0
-203 -201 -240 -165 -246 0
-203 -201 -240 -243 -168 0
-203 -201 -240 -243 -207 0
-203 -201 -240 -243 -246 0
-203 -201 -240 -168 -207 0
-203 -201 -240 -168 -246 0
-203 -201 -240 -207 -246 0
-203 -201 -165 -243 -168 0
-203 -201 -165 -243 -207 0
-203 -201 -165 -243 -246 0
-203 -201 -165 -168 -207 0
-203 -201 -165 -168 -246 0
-203 -201 -165 -207 -246 0
-203 -201 -243 -168 -207 0
-203 -201 -243 -168 -246 0
-203 -201 -243 -207 -246 0
-203 -201 -168 -207 -246 0
-203 -240 -165 -243 -168 0
-203 -240 -165 -243 -207 0
-203 -240 -165 -243 -246 0
-203 -240 -165 -168 -207 0
-203 -240 -165 -168 -246 0
-203 -240 -165 -207 -246 0
-203 -240 -243 -168 -207 0
-203 -240 -243 -168 -246 0
-203 -240 -243 -207 -246 0
-203 -240 -168 -207 -246 0
-203 -165 -243 -168 -207 0
-203 -165 -243 -168 -246 0
-203 -165 -243 -207 -246 0
-203 -165 -168 -207 -246 0
-203 -243 -168 -207 -246 0
-203 162 201 240 165 243 168 0
-203 162 201 240 165 243 207 0
-203 162 201 240 165 243 246 0
-203 162 201 240 165 168 207 0
-203 162 201 240 165 168 246 0
-203 162 201 240 165 207 246 0
-203 162 201 240 243 168 207 0
-203 162 201 240 243 168 246 0
-203 162 201 240 243 207 246 0
-203 162 201 240 168 207 246 0
-203 162 201 165 243 168 207 0
-203 162 201 165 243 168 246 0
-203 162 201 165 243 207 246 0
-203 162 201 165 168 207 246 0
-203 162 201 243 168 207 246 0
-203 162 240 165 243 168 207 0
-203 162 240 165 243 168 246 0
-203 162 240 165 243 207 246 0
-203 162 240 165 168 207 246 0
-203 162 240 243 168 207 246 0
-203 162 165 243 168 207 246 0
-203 201 240 165 243 168 207 0
-203 201 240 165 243 168 246 0
-203 201 240 165 243 207 246 0
-203 201 240 165 168 207 246 0
-203 201 240 243 168 207 246 0
-203 201 165 243 168 207 246 0
-203 240 165 243 168 207 246 0
-204 -160 -199 -238 -163 -241 -166 -205 0
-204 -160 -199 -238 -163 -241 -166 -244 0
-204 -160 -199 -238 -163 -241 -205 -244 0
-204 -160 -199 -238 -163 -166 -205 -244 0
-204 -160 -199 -238 -241 -166 -205 -244 0
-204 -160 -199 -163 -241 -166 -205 -244 0
-204 -160 -238 -163 -241 -166 -205 -244 0
-204 -199 -238 -163 -241 -166 -205 -244 0
-204 160 199 238 0
-204 160 199 163 0
-204 160 199 241 0
-204 160 199 166 0
-204 160 199 205 0
-204 160 199 244 0
-204 160 238 163 0
-204 160 238 241 0
-204 160 238 166 0
-204 160 238 205 0
-204 160 238 244 0
-204 160 163 241 0
-204 160 163 166 0
-204 160 163 205 0
-204 160 163 244 0
-204 160 241 166 0
-204 160 241 205 0
-204 160 241 244 0
-204 160 166 205 0
-204 160 166 244 0
-204 160 205 244 0
-204 199 238 163 0
-204 199 238 241 0
-204 199 238 166 0
-204 199 238 205 0
-204 199 238 244 0
-204 199 163 241 0
-204 199 163 166 0
-204 199 163 205 0
-204 199 163 244 0
-204 199 241 166 0
-204 199 241 205 0
-204 199 241 244 0
-204 199 166 205 0
-204 199 166 244 0
-204 199 205 244 0
-204 238 163 241 0
-204 238 163 166 0
-204 238 163 205 0
-204 238 163 244 0
-204 238 241 166 0
-204 238 241 205 0
-204 238 241 244 0
-204 238 166 205 0
-204 238 166 244 0
-204 238 205 244 0
-204 163 241 166 0
-204 163 241 205 0
-204 163 241 244 0
-204 163 166 205 0
-204 163 166 244 0
-204 163 205 244 0
-204 241 166 205 0
-204 241 166 244 0
-204 241 205 244 0
-204 166 205 244 0
-205 -206 0
-205 -207 0
-206 -207 0
-205 -164 -203 0
-205 -164 -242 0
-205 -164 -167 0
-205 -164 -245 0
-205 -164 -170 0
-205 -164 -209 0
-205 -164 -248 0
-205 -203 -242 0
-205 -203 -167 0
-205 -203 -245 0
-205 -203 -170 0
-205 -203 -209 0
-205 -203 -248 0
-205 -242 -167 0
-205 -242 -245 0
-205 -242 -170 0
-205 -242 -209 0
-205 -242 -248 0
-205 -167 -245 0
-205 -167 -170 0
-205 -167 -209 0
-205 -167 -248 0
-205 -245 -170 0
-205 -245 -209 0
-205 -245 -248 0
-205 -170 -209 0
-205 -170 -248 0
-205 -209 -248 0
-205 164 203 242 167 245 170 209 248 0
-206 -165 -204 -243 -168 0
-206 -165 -204 -243 -246 0
-206 -165 -204 -243 -171 0
-206 -165 -204 -243 -210 0
-206 -165 -204 -243 -249 0
-206 -165 -204 -168 -246 0
-206 -165 -204 -168 -171 0
-206 -165 -204 -168 -210 0
-206 -165 -204 -168 -249 0
-206 -165 -204 -246 -171 0
-206 -165 -204 -246 -210 0
-206 -165 -204 -246 -249 0
-206 -165 -204 -171 -210 0
-206 -165 -204 -171 -249 0
-206 -165 -204 -210 -249 0
-206 -165 -243 -168 -246 0
-206 -165 -243 -168 -171 0
-206 -165 -243 -168 -210 0
-206 -165 -243 -168 -249 0
-206 -165 -243 -246 -171 0
-206 -165 -243 -246 -210 0
-206 -165 -243 -246 -249 0
-206 -165 -243 -171 -210 0
-206 -165 -243 -171 -249 0
-206 -165 -243 -210 -249 0
-206 -165 -168 -246 -171 0
-206 -165 -168 -246 -210 0
-206 -165 -168 -246 -249 0
-206 -165 -168 -171 -210 0
-206 -165 -168 -171 -249 0
-206 -165 -168 -210 -249 0
-206 -165 -246 -171 -210 0
-206 -165 -246 -171 -249 0
-206 -165 -246 -210 -249 0
-206 -165 -171 -210 -249 0
-206 -204 -243 -168 -246 0
-206 -204 -243 -168 -171 0
-206 -204 -243 -168 -210 0
-206 -204 -243 -168 -249 0
-206 -204 -243 -246 -171 0
-206 -204 -243 -246 -210 0
-206 -204 -243 -246 -249 0
-206 -204 -243 -171 -210 0
-206 -204 -243 -171 -249 0
-206 -204 -243 -210 -249 0
-206 -204 -168 -246 -171 0
-206 -204 -168 -246 -210 0
-206 -204 -168 -246 -249 0
-206 -204 -168 -171 -210 0
-206 -204 -168 -171 -249 0
-206 -204 -168 -210 -249 0
-206 -204 -246 -171 -210 0
-206 -204 -246 -171 -249 0
-206 -204 -246 -210 -249 0
-206 -204 -171 -210 -249 0
-206 -243 -168 -246 -171 0
-206 -243 -168 -246 -210 0
-206 -243 -168 -246 -249 0
-206 -243 -168 -171 -210 0
-206 -243 -168 -171 -249 0
-206 -243 -168 -210 -249 0
-206 -243 -246 -171 -210 0
-206 -243 -246 -171 -249 0
-206 -243 -246 -210 -249 0
-206 -243 -171 -210 -249 0
-206 -168 -246 -171 -210 0
-206 -168 -246 -171 -249 0
-206 -168 -246 -210 -249 0
-206 -168 -171 -210 -249 0
-206 -246 -171 -210 -249 0
-206 165 204 243 168 246 171 0
-206 165 204 243 168 246 210 0
-206 165 204 243 168 246 249 0
-206 165 204 243 168 171 210 0
-206 165 204 243 168 171 249 0
-206 165 204 243 168 210 249 0
-206 165 204 243 246 171 210 0
-206 165 204 243 246 171 249 0
-206 165 204 243 246 210 249 0
-206 165 204 243 171 210 249 0
-206 165 204 168 246 171 210 0
-206 165 204 168 246 171 249 0
-206 165 204 168 246 210 249 0
-206 165 204 168 171 210 249 0
-206 165 204 246 171 210 249 0
-206 165 243 168 246 171 210 0
-206 165 243 168 246 171 249 0
-206 165 243 168 246 210 249 0
-206 165 243 168 171 210 249 0
-206 165 243 246 171 210 249 0
-206 165 168 246 171 210 249 0
-206 204 243 168 246 171 210 0
-206 204 243 168 246 171 249 0
-206 204 243 168 246 210 249 0
-206 204 243 168 171 210 249 0
-206 204 243 246 171 210 249 0
-206 204 168 246 171 210 249 0
-206 243 168 246 171 210 249 0
-207 -163 -202 -241 -166 -244 -169 -208 0
-207 -163 -202 -241 -166 -244 -169 -247 0
-207 -163 -202 -241 -166 -244 -208 -247 0
-207 -163 -202 -241 -166 -169 -208 -247 0
-207 -163 -202 -241 -244 -169 -208 -247 0
-207 -163 -202 -166 -244 -169 -208 -247 0
-207 -163 -241 -166 -244 -169 -208 -247 0
-207 -202 -241 -166 -244 -169 -208 -247 0
-207 163 202 241 0
-207 163 202 166 0
-207 163 202 244 0
-207 163 202 169 0
-207 163 202 208 0
-207 163 202 247 0
-207 163 241 166 0
-207 163 241 244 0
-207 163 241 169 0
-207 163 241 208 0
-207 163 241 247 0
-207 163 166 244 0
-207 163 166 169 0
-207 163 166 208 0
-207 163 166 247 0
-207 163 244 169 0
-207 163 244 208 0
-207 163 244 247 0
-207 163 169 208 0
-207 163 169 247 0
-207 163 208 247 0
-207 202 241 166 0
-207 202 241 244 0
-207 202 241 169 0
-207 202 241 208 0
-207 202 241 247 0
-207 202 166 244 0
-207 202 166 169 0
-207 202 166 208 0
-207 202 166 247 0
-207 202 244 169 0
-207 202 244 208 0
-207 202 244 247 0
-207 202 169 208 0
-207 202 169 247 0
-207 202 208 247 0
-207 241 166 244 0
-207 241 166 169 0
-207 241 166 208 0
-207 241 166 247 0
-207 241 244 169 0
-207 241 244 208 0
-207 241 244 247 0
-207 241 169 208 0
-207 241 169 247 0
-207 241 208 247 0
-207 166 244 169 0
-207 166 244 208 0
-207 166 244 247 0
-207 166 169 208 0
-207 166 169 247 0
-207 166 208 247 0
-207 244 169 208 0
-207 244 169 247 0
-207 244 208 247 0
-207 169 208 247 0
-208 -209 0
-208 -210 0
-209 -210 0
-208 -167 -206 0
-208 -167 -245 0
-208 -167 -170 0
-208 -167 -248 0
-208 -167 -173 0
-208 -167 -212 0
-208 -167 -251 0
-208 -206 -245 0
-208 -206 -170 0
-208 -206 -248 0
-208 -206 -173 0
-208 -206 -212 0
-208 -206 -251 0
-208 -245 -170 0
-208 -245 -248 0
-208 -245 -173 0
-208 -245 -212 0
-208 -245 -251 0
-208 -170 -248 0
-208 -170 -173 0
-208 -170 -212 0
-208 -170 -251 0
-208 -248 -173 0
-208 -248 -212 0
-208 -248 -251 0
-208 -173 -212 0
-208 -173 -251 0
-208 -212 -251 0
-208 167 206 245 170 248 173 212 251 0
-209 -168 -207 -246 -171 0
-209 -168 -207 -246 -249 0
-209 -168 -207 -246 -174 0
-209 -168 -207 -246 -213 0
-209 -168 -207 -246 -252 0
-209 -168 -207 -171 -249 0
-209 -168 -207 -171 -174 0
-209 -168 -207 -171 -213 0
-209 -168 -207 -171 -252 0
-209 -168 -207 -249 -174 0
-209 -168 -207 -249 -213 0
-209 -168 -207 -249 -252 0
-209 -168 -207 -174 -213 0
-209 -168 -207 -174 -252 0
-209 -168 -207 -213 -252 0
-209 -168 -246 -171 -249 0
-209 -168 -246 -171 -174 0
-209 -168 -246 -171 -213 0
-209 -168 -246 -171 -252 0
-209 -168 -246 -249 -174 0
-209 -168 -246 -249 -213 0
-209 -168 -246 -249 -252 0
-209 -168 -246 -174 -213 0
-209 -168 -246 -174 -252 0
-209 -168 -246 -213 -252 0
-209 -168 -171 -249 -174 0
-209 -168 -171 -249 -213 0
-209 -168 -171 -249 -252 0
-209 -168 -171 -174 -213 0
-209 -168 -171 -174 -252 0
-209 -168 -171 -213 -252 0
-209 -168 -249 -174 -213 0
-209 -168 -249 -174 -252 0
-209 -168 -249 -213 -252 0
-209 -168 -174 -213 -252 0
-209 -207 -246 -171 -249 0
-209 -207 -246 -171 -174 0
-209 -207 -246 -171 -213 0
-209 -207 -246 -171 -252 0
-209 -207 -246 -249 -174 0
-209 -207 -246 -249 -213 0
-209 -207 -246 -249 -252 0
-209 -207 -246 -174 -213 0
-209 -207 -246 -174 -252 0
-209 -207 -246 -213 -252 0
-209 -207 -171 -249 -174 0
-209 -207 -171 -249 -213 0
-209 -207 -171 -249 -252 0
-209 -207 -171 -174 -213 0
-209 -207 -171 -174 -252 0
-209 -207 -171 -213 -252 0
-209 -207 -249 -174 -213 0
-209 -207 -249 -174 -252 0
-209 -207 -249 -213 -252 0
-209 -207 -174 -213 -252 0
-209 -246 -171 -249 -174 0
-209 -246 -171 -249 -213 0
-209 -246 -171 -249 -252 0
-209 -246 -171 -174 -213 0
-209 -246 -171 -174 -252 0
-209 -246 -171 -213 -252 0
-209 -246 -249 -174 -213 0
-209 -246 -249 -174 -252 0
-209 -246 -249 -213 -252 0
-209 -246 -174 -213 -252 0
-209 -171 -249 -174 -213 0
-209 -171 -249 -174 -252 0
-209 -171 -249 -213 -252 0
-209 -171 -174 -213 -252 0
-209 -249 -174 -213 -252 0
-209 168 207 246 171 249 174 0
-209 168 207 246 171 249 213 0
-209 168 207 246 171 249 252 0
-209 168 207 246 171 174 213 0
-209 168 207 246 171 174 252 0
-209 168 207 246 171 213 252 0
-209 168 207 246 249 174 213 0
-209 168 207 246 249 174 252 0
-209 168 207 246 249 213 252 0
-209 168 207 246 174 213 252 0
-209 168 207 171 249 174 213 0
-209 168 207 171 249 174 252 0
-209 168 207 171 249 213 252 0
-209 168 207 171 174 213 252 0
-209 168 207 249 174 213 252 0
-209 168 246 171 249 174 213 0
-209 168 246 171 249 174 252 0
-209 168 246 171 249 213 252 0
-209 168 246 171 174 213 252 0
-209 168 246 249 174 213 252 0
-209 168 171 249 174 213 252 0
-209 207 246 171 249 174 213 0
-209 207 246 171 249 174 252 0
-209 207 246 171 249 213 252 0
-209 207 246 171 174 213 252 0
-209 207 246 249 174 213 252 0
-209 207 171 249 174 213 252 0
-209 246 171 249 174 213 252 0
-210 -166 -205 -244 -169 -247 -172 -211 0
-210 -166 -205 -244 -169 -247 -172 -250 0
-210 -166 -205 -244 -169 -247 -211 -250 0
-210 -166 -205 -244 -169 -172 -211 -250 0
-210 -166 -205 -244 -247 -172 -211 -250 0
-210 -166 -205 -169 -247 -172 -211 -250 0
-210 -166 -244 -169 -247 -172 -211 -250 0
-210 -205 -244 -169 -247 -172 -211 -250 0
-210 166 205 244 0
-210 166 205 169 0
-210 166 205 247 0
-210 166 205 172 0
-210 166 205 211 0
-210 166 205 250 0
-210 166 244 169 0
-210 166 244 247 0
-210 166 244 172 0
-210 166 244 211 0
-210 166 244 250 0
-210 166 169 247 0
-210 166 169 172 0
-210 166 169 211 0
-210 166 169 250 0
-210 166 247 172 0
-210 166 247 211 0
-210 166 247 250 0
-210 166 172 211 0
-210 166 172 250 0
-210 166 211 250 0
-210 205 244 169 0
-210 205 244 247 0
-210 205 244 172 0
-210 205 244 211 0
-210 205 244 250 0
-210 205 169 247 0
-210 205 169 172 0
-210 205 169 211 0
-210 205 169 250 0
-210 205 247 172 0
-210 205 247 211 0
-210 205 247 250 0
-210 205 172 211 0
-210 205 172 250 0
-210 205 211 250 0
-210 244 169 247 0
-210 244 169 172 0
-210 244 169 211 0
-210 244 169 250 0
-210 244 247 172 0
-210 244 247 211 0
-210 244 247 250 0
-210 244 172 211 0
-210 244 172 250 0
-210 244 211 250 0
-210 169 247 172 0
-210 169 247 211 0
-210 169 247 250 0
-210 169 172 211 0
-210 169 172 250 0
-210 169 211 250 0
-210 247 172 211 0
-210 247 172 250 0
-210 247 211 250 0
-210 172 211 250 0
-211 -212 0
-211 -213 0
-212 -213 0
-211 -170 -209 0
-211 -170 -248 0
-211 -170 -173 0
-211 -170 -251 0
-211 -170 -176 0
-211 -170 -215 0
-211 -170 -254 0
-211 -209 -248 0
-211 -209 -173 0
-211 -209 -251 0
-211 -209 -176 0
-211 -209 -215 0
-211 -209 -254 0
-211 -248 -173 0
-211 -248 -251 0
-211 -248 -176 0
-211 -248 -215 0
-211 -248 -254 0
-211 -173 -251 0
-211 -173 -176 0
-211 -173 -215 0
-211 -173 -254 0
-211 -251 -176 0
-211 -251 -215 0
-211 -251 -254 0
-211 -176 -215 0
-211 -176 -254 0
-211 -215 -254 0
-211 170 209 248 173 251 176 215 254 0
-212 -171 -210 -249 -174 0
-212 -171 -210 -249 -252 0
-212 -171 -210 -249 -177 0
-212 -171 -210 -249 -216 0
-212 -171 -210 -249 -255 0
-212 -171 -210 -174 -252 0
-212 -171 -210 -174 -177 0
-212 -171 -210 -174 -216 0
-212 -171 -210 -174 -255 0
-212 -171 -210 -252 -177 0
-212 -171 -210 -252 -216 0
-212 -171 -210 -252 -255 0
-212 -171 -210 -177 -216 0
-212 -171 -210 -177 -255 0
-212 -171 -210 -216 -255 0
-212 -171 -249 -174 -252 0
-212 -171 -249 -174 -177 0
-212 -171 -249 -174 -216 0
-212 -171 -249 -174 -255 0
-212 -171 -249 -252 -177 0
-212 -171 -249 -252 -216 0
-212 -171 -249 -252 -255 0
-212 -171 -249 -177 -216 0
-212 -171 -249 -177 -255 0
-212 -171 -249 -216 -255 0
-212 -171 -174 -252 -177 0
-212 -171 -174 -252 -216 0
-212 -171 -174 -252 -255 0
-212 -171 -174 -177 -216 0
-212 -171 -174 -177 -255 0
-212 -171 -174 -216 -255 0
-212 -171 -252 -177 -216 0
-212 -171 -252 -177 -255 0
-212 -171 -252 -216 -255 0
-212 -171 -177 -216 -255 0
-212 -210 -249 -174 -252 0
-212 -210 -249 -174 -177 0
-212 -210 -249 -174 -216 0
-212 -210 -249 -174 -255 0
-212 -210 -249 -252 -177 0
-212 -210 -249 -252 -216 0
-212 -210 -249 -252 -255 0
-212 -210 -249 -177 -216 0
-212 -210 -249 -177 -255 0
-212 -210 -249 -216 -255 0
-212 -210 -174 -252 -177 0
-212 -210 -174 -252 -216 0
-212 -210 -174 -252 -255 0
-212 -210 -174 -177 -216 0
-212 -210 -174 -177 -255 0
-212 -210 -174 -216 -255 0
-212 -210 -252 -177 -216 0
-212 -210 -252 -177 -255 0
-212 -210 -252 -216 -255 0
-212 -210 -177 -216 -255 0
-212 -249 -174 -252 -177 0
-212 -249 -174 -252 -216 0
-212 -249 -174 -252 -255 0
-212 -249 -174 -177 -216 0
-212 -249 -174 -177 -255 0
-212 -249 -174 -216 -255 0
-212 -249 -252 -177 -216 0
-212 -249 -252 -177 -255 0
-212 -249 -252 -216 -255 0
-212 -249 -177 -216 -255 0
-212 -174 -252 -177 -216 0
-212 -174 -252 -177 -255 0
-212 -174 -252 -216 -255 0
-212 -174 -177 -216 -255 0
-212 -252 -177 -216 -255 0
-212 171 210 249 174 252 177 0
-212 171 210 249 174 252 216 0
-212 171 210 249 174 252 255 0
-212 171 210 249 174 177 216 0
-212 171 210 249 174 177 255 0
-212 171 210 249 174 216 255 0
-212 171 210 249 252 177 216 0
-212 171 210 249 252 177 255 0
-212 171 210 249 252 216 255 0
-212 171 210 249 177 216 255 0
-212 171 210 174 252 177 216 0
-212 171 210 174 252 177 255 0
-212 171 210 174 252 216 255 0
-212 171 210 174 177 216 255 0
-212 171 210 252 177 216 255 0
-212 171 249 174 252 177 216 0
-212 171 249 174 252 177 255 0
-212 171 249 174 252 216 255 0
-212 171 249 174 177 216 255 0
-212 171 249 252 177 216 255 0
-212 171 174 252 177 216 255 0
-212 210 249 174 252 177 216 0
-212 210 249 174 252 177 255 0
-212 210 249 174 252 216 255 0
-212 210 249 174 177 216 255 0
-212 210 249 252 177 216 255 0
-212 210 174 252 177 216 255 0
-212 249 174 252 177 216 255 0
-213 -169 -208 -247 -172 -250 -175 -214 0
-213 -169 -208 -247 -172 -250 -175 -253 0
-213 -169 -208 -247 -172 -250 -214 -253 0
-213 -169 -208 -247 -172 -175 -214 -253 0
-213 -169 -208 -247 -250 -175 -214 -253 0
-213 -169 -208 -172 -250 -175 -214 -253 0
-213 -169 -247 -172 -250 -175 -214 -253 0
-213 -208 -247 -172 -250 -175 -214 -253 0
-213 169 208 247 0
-213 169 208 172 0
-213 169 208 250 0
-213 169 208 175 0
-213 169 208 214 0
-213 169 208 253 0
-213 169 247 172 0
-213 169 247 250 0
-213 169 247 175 0
-213 169 247 214 0
-213 169 247 253 0
-213 169 172 250 0
-213 169 172 175 0
-213 169 172 214 0
-213 169 172 253 0
-213 169 250 175 0
-213 169 250 214 0
-213 169 250 253 0
-213 169 175 214 0
-213 169 175 253 0
-213 169 214 253 0
-213 208 247 172 0
-213 208 247 250 0
-213 208 247 175 0
-213 208 247 214 0
-213 208 247 253 0
-213 208 172 250 0
-213 208 172 175 0
-213 208 172 214 0
-213 208 172 253 0
-213 208 250 175 0
-213 208 250 214 0
-213 208 250 253 0
-213 208 175 214 0
-213 208 175 253 0
-213 208 214 253 0
-213 247 172 250 0
-213 247 172 175 0
-213 247 172 214 0
-213 247 172 253 0
-213 247 250 175 0
-213 247 250 214 0
-213 247 250 253 0
-213 247 175 214 0
-213 247 175 253 0
-213 247 214 253 0
-213 172 250 175 0
-213 172 250 214 0
-213 172 250 253 0
-213 172 175 214 0
-213 172 175 253 0
-213 172 214 253 0
-213 250 175 214 0
-213 250 175 253 0
-213 250 214 253 0
-213 175 214 253 0
-214 -215 0
-214 -216 0
-215 -216 0
-214 -173 -212 0
-214 -173 -251 0
-214 -173 -176 0
-214 -173 -254 0
-214 -173 -179 0
-214 -173 -218 0
-214 -212 -251 0
-214 -212 -176 0
-214 -212 -254 0
-214 -212 -179 0
-214 -212 -218 0
-214 -251 -176 0
-214 -251 -254 0
-214 -251 -179 0
-214 -251 -218 0
-214 -176 -254 0
-214 -176 -179 0
-214 -176 -218 0
-214 -254 -179 0
-214 -254 -218 0
-214 -179 -218 0
-214 173 212 251 176 254 179 218 0
-215 -174 -213 -252 -177 0
-215 -174 -213 -252 -255 0
-215 -174 -213 -252 -180 0
-215 -174 -213 -252 -219 0
-215 -174 -213 -177 -255 0
-215 -174 -213 -177 -180 0
-215 -174 -213 -177 -219 0
-215 -174 -213 -255 -180 0
-215 -174 -213 -255 -219 0
-215 -174 -213 -180 -219 0
-215 -174 -252 -177 -255 0
-215 -174 -252 -177 -180 0
-215 -174 -252 -177 -219 0
-215 -174 -252 -255 -180 0
-215 -174 -252 -255 -219 0
-215 -174 -252 -180 -219 0
-215 -174 -177 -255 -180 0
-215 -174 -177 -255 -219 0
-215 -174 -177 -180 -219 0
-215 -174 -255 -180 -219 0
-215 -213 -252 -177 -255 0
-215 -213 -252 -177 -180 0
-215 -213 -252 -177 -219 0
-215 -213 -252 -255 -180 0
-215 -213 -252 -255 -219 0
-215 -213 -252 -180 -219 0
-215 -213 -177 -255 -180 0
-215 -213 -177 -255 -219 0
-215 -213 -177 -180 -219 0
-215 -213 -255 -180 -219 0
-215 -252 -177 -255 -180 0
-215 -252 -177 -255 -219 0
-215 -252 -177 -180 -219 0
-215 -252 -255 -180 -219 0
-215 -177 -255 -180 -219 0
-215 174 213 252 177 255 0
-215 174 213 252 177 180 0
-215 174 213 252 177 219 0
-215 174 213 252 255 180 0
-215 174 213 252 255 219 0
-215 174 213 252 180 219 0
-215 174 213 177 255 180 0
-215 174 213 177 255 219 0
-215 174 213 177 180 219 0
-215 174 213 255 180 219 0
-215 174 252 177 255 180 0
-215 174 252 177 255 219 0
-215 174 252 177 180 219 0
-215 174 252 255 180 219 0
-215 174 177 255 180 219 0
-215 213 252 177 255 180 0
-215 213 252 177 255 219 0
-215 213 252 177 180 219 0
-215 213 252 255 180 219 0
-215 213 177 255 180 219 0
-215 252 177 255 180 219 0
-216 -172 -211 -250 -175 -253 -178 -217 0
-216 172 211 0
-216 172 250 0
-216 172 175 0
-216 172 253 0
-216 172 178 0
-216 172 217 0
-216 211 250 0
-216 211 175 0
-216 211 253 0
-216 211 178 0
-216 211 217 0
-216 250 175 0
-216 250 253 0
-216 250 178 0
-216 250 217 0
-216 175 253 0
-216 175 178 0
-216 175 217 0
-216 253 178 0
-216 253 217 0
-216 178 217 0
-217 -218 0
-217 -219 0
-218 -219 0
-217 -176 -215 0
-217 -176 -254 0
-217 -176 -179 0
-217 -176 -182 0
-217 -176 -221 0
-217 -215 -254 0
-217 -215 -179 0
-217 -215 -182 0
-217 -215 -221 0
-217 -254 -179 0
-217 -254 -182 0
-217 -254 -221 0
-217 -179 -182 0
-217 -179 -221 0
-217 -182 -221 0
-217 176 215 254 179 182 221 0
-218 -177 -216 -255 -180 0
-218 -177 -216 -255 -183 0
-218 -177 -216 -255 -222 0
-218 -177 -216 -180 -183 0
-218 -177 -216 -180 -222 0
-218 -177 -216 -183 -222 0
-218 -177 -255 -180 -183 0
-218 -177 -255 -180 -222 0
-218 -177 -255 -183 -222 0
-218 -177 -180 -183 -222 0
-218 -216 -255 -180 -183 0
-218 -216 -255 -180 -222 0
-218 -216 -255 -183 -222 0
-218 -216 -180 -183 -222 0
-218 -255 -180 -183 -222 0
-218 177 216 255 180 0
-218 177 216 255 183 0
-218 177 216 255 222 0
-218 177 216 180 183 0
-218 177 216 180 222 0
-218 177 216 183 222 0
-218 177 255 180 183 0
-218 177 255 180 222 0
-218 177 255 183 222 0
-218 177 180 183 222 0
-218 216 255 180 183 0
-218 216 255 180 222 0
-218 216 255 183 222 0
-218 216 180 183 222 0
-218 255 180 183 222 0
-219 175 0
-219 214 0
-219 253 0
-219 178 0
-219 181 0
-219 220 0
-220 -221 0
-220 -222 0
-221 -222 0
-220 -179 -218 0
-220 -179 -182 0
-220 -179 -185 0
-220 -179 -224 0
-220 -218 -182 0
-220 -218 -185 0
-220 -218 -224 0
-220 -182 -185 0
-220 -182 -224 0
-220 -185 -224 0
-220 179 218 182 185 224 0
-221 -180 -219 -183 -186 0
-221 -180 -219 -183 -225 0
-221 -180 -219 -186 -225 0
-221 -180 -183 -186 -225 0
-221 -219 -183 -186 -225 0
-221 180 219 183 0
-221 180 219 186 0
-221 180 219 225 0
-221 180 183 186 0
-221 180 183 225 0
-221 180 186 225 0
-221 219 183 186 0
-221 219 183 225 0
-221 219 186 225 0
-221 183 186 225 0
-222 0
-223 -224 0
-223 -225 0
-224 -225 0
-223 -182 -221 0
-223 -182 -185 0
-223 -182 -188 0
-223 -182 -227 0
-223 -221 -185 0
-223 -221 -188 0
-223 -221 -227 0
-223 -185 -188 0
-223 -185 -227 0
-223 -188 -227 0
-223 182 221 185 188 227 0
-224 -183 -222 -186 -189 0
-224 -183 -222 -186 -228 0
-224 -183 -222 -189 -228 0
-224 -183 -186 -189 -228 0
-224 -222 -186 -189 -228 0
-224 183 222 186 0
-224 183 222 189 0
-224 183 222 228 0
-224 183 186 189 0
-224 183 186 228 0
-224 183 189 228 0
-224 222 186 189 0
-224 222 186 228 0
-224 222 189 228 0
-224 186 189 228 0
-225 0
-226 -227 0
-226 -228 0
-227 -228 0
-226 -185 -224 0
-226 -185 -188 0
-226 -185 -191 0
-226 -185 -230 0
-226 -224 -188 0
-226 -224 -191 0
-226 -224 -230 0
-226 -188 -191 0
-226 -188 -230 0
-226 -191 -230 0
-226 185 224 188 191 230 0
-227 -186 -225 -189 -192 0
-227 -186 -225 -189 -231 0
-227 -186 -225 -192 -231 0
-227 -186 -189 -192 -231 0
-227 -225 -189 -192 -231 0
-227 186 225 189 0
-227 186 225 192 0
-227 186 225 231 0
-227 186 189 192 0
-227 186 189 231 0
-227 186 192 231 0
-227 225 189 192 0
-227 225 189 231 0
-227 225 192 231 0
-227 189 192 231 0
-228 0
-229 -230 0
-229 -231 0
-230 -231 0
-229 -188 -227 0
-229 -188 -191 0
-229 -188 -194 0
-229 -188 -233 0
-229 -227 -191 0
-229 -227 -194 0
-229 -227 -233 0
-229 -191 -194 0
-229 -191 -233 0
-229 -194 -233 0
-229 188 227 191 194 233 0
-230 -189 -228 -192 -195 0
-230 -189 -228 -192 -234 0
-230 -189 -228 -195 -234 0
-230 -189 -192 -195 -234 0
-230 -228 -192 -195 -234 0
-230 189 228 192 0
-230 189 228 195 0
-230 189 228 234 0
-230 189 192 195 0
-230 189 192 234 0
-230 189 195 234 0
-230 228 192 195 0
-230 228 192 234 0
-230 228 195 234 0
-230 192 195 234 0
-231 0
-232 -233 0
-232 -234 0
-233 -234 0
-235 -236 0
-235 -237 0
-236 -237 0
-238 -239 0
-238 -240 0
-239 -240 0
-238 -197 -236 0
-238 -197 -200 0
-238 -197 -203 0
-238 -197 -242 0
-238 -236 -200 0
-238 -236 -203 0
-238 -236 -242 0
-238 -200 -203 0
-238 -200 -242 0
-238 -203 -242 0
-238 197 236 200 203 242 0
-239 -198 -237 -201 -204 0
-239 -198 -237 -201 -243 0
-239 -198 -237 -204 -243 0
-239 -198 -201 -204 -243 0
-239 -237 -201 -204 -243 0
-239 198 237 201 0
-239 198 237 204 0
-239 198 237 243 0
-239 198 201 204 0
-239 198 201 243 0
-239 198 204 243 0
-239 237 201 204 0
-239 237 201 243 0
-239 237 204 243 0
-239 201 204 243 0
-240 0
-241 -242 0
-241 -243 0
-242 -243 0
-241 -200 -239 0
-241 -200 -203 0
-241 -200 -206 0
-241 -200 -245 0
-241 -239 -203 0
-241 -239 -206 0
-241 -239 -245 0
-241 -203 -206 0
-241 -203 -245 0
-241 -206 -245 0
-241 200 239 203 206 245 0
-242 -201 -240 -204 -207 0
-242 -201 -240 -204 -246 0
-242 -201 -240 -207 -246 0
-242 -201 -204 -207 -246 0
-242 -240 -204 -207 -246 0
-242 201 240 204 0
-242 201 240 207 0
-242 201 240 246 0
-242 201 204 207 0
-242 201 204 246 0
-242 201 207 246 0
-242 240 204 207 0
-242 240 204 246 0
-242 240 207 246 0
-242 204 207 246 0
-243 0
-244 -245 0
-244 -246 0
-245 -246 0
-244 -203 -242 0
-244 -203 -206 0
-244 -203 -209 0
-244 -203 -248 0
-244 -242 -206 0
-244 -242 -209 0
-244 -242 -248 0
-244 -206 -209 0
-244 -206 -248 0
-244 -209 -248 0
-244 203 242 206 209 248 0
-245 -204 -243 -207 -210 0
-245 -204 -243 -207 -249 0
-245 -204 -243 -210 -249 0
-245 -204 -207 -210 -249 0
-245 -243 -207 -210 -249 0
-245 204 243 207 0
-245 204 243 210 0
-245 204 243 249 0
-245 204 207 210 0
-245 204 207 249 0
-245 204 210 249 0
-245 243 207 210 0
-245 243 207 249 0
-245 243 210 249 0
-245 207 210 249 0
-246 0
-247 -248 0
-247 -249 0
-248 -249 0
-247 -206 -245 0
-247 -206 -209 0
-247 -206 -212 0
-247 -206 -251 0
-247 -245 -209 0
-247 -245 -212 0
-247 -245 -251 0
-247 -209 -212 0
-247 -209 -251 0
-247 -212 -251 0
-247 206 245 209 212 251 0
-248 -207 -246 -210 -213 0
-248 -207 -246 -210 -252 0
-248 -207 -246 -213 -252 0
-248 -207 -210 -213 -252 0
-248 -246 -210 -213 -252 0
-248 207 246 210 0
-248 207 246 213 0
-248 207 246 252 0
-248 207 210 213 0
-248 207 210 252 0
-248 207 213 252 0
-248 246 210 213 0
-248 246 210 252 0
-248 246 213 252 0
-248 210 213 252 0
-249 0
-250 -251 0
-250 -252 0
-251 -252 0
-250 -209 -248 0
-250 -209 -212 0
-250 -209 -215 0
-250 -209 -254 0
-250 -248 -212 0
-250 -248 -215 0
-250 -248 -254 0
-250 -212 -215 0
-250 -212 -254 0
-250 -215 -254 0
-250 209 248 212 215 254 0
-251 -210 -249 -213 -216 0
-251 -210 -249 -213 -255 0
-251 -210 -249 -216 -255 0
-251 -210 -213 -216 -255 0
-251 -249 -213 -216 -255 0
-251 210 249 213 0
-251 210 249 216 0
-251 210 249 255 0
-251 210 213 216 0
-251 210 213 255 0
-251 210 216 255 0
-251 249 213 216 0
-251 249 213 255 0
-251 249 216 255 0
-251 213 216 255 0
-252 0
-253 -254 0
-253 -255 0
-254 -255 0
-253 -212 -251 0
-253 -212 -215 0
-253 -212 -218 0
-253 -251 -215 0
-253 -251 -218 0
-253 -215 -218 0
-253 212 251 215 218 0
-254 -213 -252 -216 -219 0
-254 213 252 0
-254 213 216 0
-254 213 219 0
-254 252 216 0
-254 252 219 0
-254 216 219 0
-255 0
253 254 255 0
