p cnf 123 4512
-1 -2 0
-1 -3 0
-2 -3 0
-4 -5 0
-4 -6 0
-5 -6 0
-7 -8 0
-7 -9 0
-8 -9 0
-10 -11 0
-10 -12 0
-11 -12 0
-13 -14 0
-13 -15 0
-14 -15 0
-16 -17 0
-16 -18 0
-17 -18 0
-19 -20 0
-19 -21 0
-20 -21 0
-22 -23 0
-22 -24 0
-23 -24 0
-25 -26 0
-25 -27 0
-26 -27 0
-28 -29 0
-28 -30 0
-29 -30 0
-31 -32 0
-31 -33 0
-32 -33 0
-31 -2 -29 0
-31 -2 -56 0
-31 -2 -5 0
-31 -2 -59 0
-31 -2 -8 0
-31 -2 -35 0
-31 -2 -62 0
-31 -29 -56 0
-31 -29 -5 0
-31 -29 -59 0
-31 -29 -8 0
-31 -29 -35 0
-31 -29 -62 0
-31 -56 -5 0
-31 -56 -59 0
-31 -56 -8 0
-31 -56 -35 0
-31 -56 -62 0
-31 -5 -59 0
-31 -5 -8 0
-31 -5 -35 0
-31 -5 -62 0
-31 -59 -8 0
-31 -59 -35 0
-31 -59 -62 0
-31 -8 -35 0
-31 -8 -62 0
-31 -35 -62 0
-31 2 29 56 5 59 8 35 62 0
-32 -3 -30 -57 -6 -60 0
-32 -3 -30 -57 -6 -9 0
-32 -3 -30 -57 -6 -36 0
-32 -3 -30 -57 -6 -63 0
-32 -3 -30 -57 -60 -9 0
-32 -3 -30 -57 -60 -36 0
-32 -3 -30 -57 -60 -63 0
-32 -3 -30 -57 -9 -36 0
-32 -3 -30 -57 -9 -63 0
-32 -3 -30 -57 -36 -63 0
-32 -3 -30 -6 -60 -9 0
-32 -3 -30 -6 -60 -36 0
-32 -3 -30 -6 -60 -63 0
-32 -3 -30 -6 -9 -36 0
-32 -3 -30 -6 -9 -63 0
-32 -3 -30 -6 -36 -63 0
-32 -3 -30 -60 -9 -36 0
-32 -3 -30 -60 -9 -63 0
-32 -3 -30 -60 -36 -63 0
-32 -3 -30 -9 -36 -63 0
-32 -3 -57 -6 -60 -9 0
-32 -3 -57 -6 -60 -36 0
-32 -3 -57 -6 -60 -63 0
-32 -3 -57 -6 -9 -36 0
-32 -3 -57 -6 -9 -63 0
-32 -3 -57 -6 -36 -63 0
-32 -3 -57 -60 -9 -36 0
-32 -3 -57 -60 -9 -63 0
-32 -3 -57 -60 -36 -63 0
-32 -3 -57 -9 -36 -63 0
-32 -3 -6 -60 -9 -36 0
-32 -3 -6 -60 -9 -63 0
-32 -3 -6 -60 -36 -63 0
-32 -3 -6 -9 -36 -63 0
-32 -3 -60 -9 -36 -63 0
-32 -30 -57 -6 -60 -9 0
-32 -30 -57 -6 -60 -36 0
-32 -30 -57 -6 -60 -63 0
-32 -30 -57 -6 -9 -36 0
-32 -30 -57 -6 -9 -63 0
-32 -30 -57 -6 -36 -63 0
-32 -30 -57 -60 -9 -36 0
-32 -30 -57 -60 -9 -63 0
-32 -30 -57 -60 -36 -63 0
-32 -30 -57 -9 -36 -63 0
-32 -30 -6 -60 -9 -36 0
-32 -30 -6 -60 -9 -63 0
-32 -30 -6 -60 -36 -63 0
-32 -30 -6 -9 -36 -63 0
-32 -30 -60 -9 -36 -63 0
-32 -57 -6 -60 -9 -36 0
-32 -57 -6 -60 -9 -63 0
-32 -57 -6 -60 -36 -63 0
-32 -57 -6 -9 -36 -63 0
-32 -57 -60 -9 -36 -63 0
-32 -6 -60 -9 -36 -63 0
-32 3 30 57 6 60 0
-32 3 30 57 6 9 0
-32 3 30 57 6 36 0
-32 3 30 57 6 63 0
-32 3 30 57 60 9 0
-32 3 30 57 60 36 0
-32 3 30 57 60 63 0
-32 3 30 57 9 36 0
-32 3 30 57 9 63 0
-32 3 30 57 36 63 0
-32 3 30 6 60 9 0
-32 3 30 6 60 36 0
-32 3 30 6 60 63 0
-32 3 30 6 9 36 0
-32 3 30 6 9 63 0
-32 3 30 6 36 63 0
-32 3 30 60 9 36 0
-32 3 30 60 9 63 0
-32 3 30 60 36 63 0
-32 3 30 9 36 63 0
-32 3 57 6 60 9 0
-32 3 57 6 60 36 0
-32 3 57 6 60 63 0
-32 3 57 6 9 36 0
-32 3 57 6 9 63 0
-32 3 57 6 36 63 0
-32 3 57 60 9 36 0
-32 3 57 60 9 63 0
-32 3 57 60 36 63 0
-32 3 57 9 36 63 0
-32 3 6 60 9 36 0
-32 3 6 60 9 63 0
-32 3 6 60 36 63 0
-32 3 6 9 36 63 0
-32 3 60 9 36 63 0
-32 30 57 6 60 9 0
-32 30 57 6 60 36 0
-32 30 57 6 60 63 0
-32 30 57 6 9 36 0
-32 30 57 6 9 63 0
-32 30 57 6 36 63 0
-32 30 57 60 9 36 0
-32 30 57 60 9 63 0
-32 30 57 60 36 63 0
-32 30 57 9 36 63 0
-32 30 6 60 9 36 0
-32 30 6 60 9 63 0
-32 30 6 60 36 63 0
-32 30 6 9 36 63 0
-32 30 60 9 36 63 0
-32 57 6 60 9 36 0
-32 57 6 60 9 63 0
-32 57 6 60 36 63 0
-32 57 6 9 36 63 0
-32 57 60 9 36 63 0
-32 6 60 9 36 63 0
-33 -1 -28 -55 -4 -58 -7 0
-33 -1 -28 -55 -4 -58 -34 0
-33 -1 -28 -55 -4 -58 -61 0
-33 -1 -28 -55 -4 -7 -34 0
-33 -1 -28 -55 -4 -7 -61 0
-33 -1 -28 -55 -4 -34 -61 0
-33 -1 -28 -55 -58 -7 -34 0
-33 -1 -28 -55 -58 -7 -61 0
-33 -1 -28 -55 -58 -34 -61 0
-33 -1 -28 -55 -7 -34 -61 0
-33 -1 -28 -4 -58 -7 -34 0
-33 -1 -28 -4 -58 -7 -61 0
-33 -1 -28 -4 -58 -34 -61 0
-33 -1 -28 -4 -7 -34 -61 0
-33 -1 -28 -58 -7 -34 -61 0
-33 -1 -55 -4 -58 -7 -34 0
-33 -1 -55 -4 -58 -7 -61 0
-33 -1 -55 -4 -58 -34 -61 0
-33 -1 -55 -4 -7 -34 -61 0
-33 -1 -55 -58 -7 -34 -61 0
-33 -1 -4 -58 -7 -34 -61 0
-33 -28 -55 -4 -58 -7 -34 0
-33 -28 -55 -4 -58 -7 -61 0
-33 -28 -55 -4 -58 -34 -61 0
-33 -28 -55 -4 -7 -34 -61 0
-33 -28 -55 -58 -7 -34 -61 0
-33 -28 -4 -58 -7 -34 -61 0
-33 -55 -4 -58 -7 -34 -61 0
-33 1 28 55 4 0
-33 1 28 55 58 0
-33 1 28 55 7 0
-33 1 28 55 34 0
-33 1 28 55 61 0
-33 1 28 4 58 0
-33 1 28 4 7 0
-33 1 28 4 34 0
-33 1 28 4 61 0
-33 1 28 58 7 0
-33 1 28 58 34 0
-33 1 28 58 61 0
-33 1 28 7 34 0
-33 1 28 7 61 0
-33 1 28 34 61 0
-33 1 55 4 58 0
-33 1 55 4 7 0
-33 1 55 4 34 0
-33 1 55 4 61 0
-33 1 55 58 7 0
-33 1 55 58 34 0
-33 1 55 58 61 0
-33 1 55 7 34 0
-33 1 55 7 61 0
-33 1 55 34 61 0
-33 1 4 58 7 0
-33 1 4 58 34 0
-33 1 4 58 61 0
-33 1 4 7 34 0
-33 1 4 7 61 0
-33 1 4 34 61 0
-33 1 58 7 34 0
-33 1 58 7 61 0
-33 1 58 34 61 0
-33 1 7 34 61 0
-33 28 55 4 58 0
-33 28 55 4 7 0
-33 28 55 4 34 0
-33 28 55 4 61 0
-33 28 55 58 7 0
-33 28 55 58 34 0
-33 28 55 58 61 0
-33 28 55 7 34 0
-33 28 55 7 61 0
-33 28 55 34 61 0
-33 28 4 58 7 0
-33 28 4 58 34 0
-33 28 4 58 61 0
-33 28 4 7 34 0
-33 28 4 7 61 0
-33 28 4 34 61 0
-33 28 58 7 34 0
-33 28 58 7 61 0
-33 28 58 34 61 0
-33 28 7 34 61 0
-33 55 4 58 7 0
-33 55 4 58 34 0
-33 55 4 58 61 0
-33 55 4 7 34 0
-33 55 4 7 61 0
-33 55 4 34 61 0
-33 55 58 7 34 0
-33 55 58 7 61 0
-33 55 58 34 61 0
-33 55 7 34 61 0
-33 4 58 7 34 0
-33 4 58 7 61 0
-33 4 58 34 61 0
-33 4 7 34 61 0
-33 58 7 34 61 0
-34 -35 0
-34 -36 0
-35 -36 0
-34 -5 -32 0
-34 -5 -59 0
-34 -5 -8 0
-34 -5 -62 0
-34 -5 -11 0
-34 -5 -38 0
-34 -5 -65 0
-34 -32 -59 0
-34 -32 -8 0
-34 -32 -62 0
-34 -32 -11 0
-34 -32 -38 0
-34 -32 -65 0
-34 -59 -8 0
-34 -59 -62 0
-34 -59 -11 0
-34 -59 -38 0
-34 -59 -65 0
-34 -8 -62 0
-34 -8 -11 0
-34 -8 -38 0
-34 -8 -65 0
-34 -62 -11 0
-34 -62 -38 0
-34 -62 -65 0
-34 -11 -38 0
-34 -11 -65 0
-34 -38 -65 0
-34 5 32 59 8 62 11 38 65 0
-35 -6 -33 -60 -9 -63 0
-35 -6 -33 -60 -9 -12 0
-35 -6 -33 -60 -9 -39 0
-35 -6 -33 -60 -9 -66 0
-35 -6 -33 -60 -63 -12 0
-35 -6 -33 -60 -63 -39 0
-35 -6 -33 -60 -63 -66 0
-35 -6 -33 -60 -12 -39 0
-35 -6 -33 -60 -12 -66 0
-35 -6 -33 -60 -39 -66 0
-35 -6 -33 -9 -63 -12 0
-35 -6 -33 -9 -63 -39 0
-35 -6 -33 -9 -63 -66 0
-35 -6 -33 -9 -12 -39 0
-35 -6 -33 -9 -12 -66 0
-35 -6 -33 -9 -39 -66 0
-35 -6 -33 -63 -12 -39 0
-35 -6 -33 -63 -12 -66 0
-35 -6 -33 -63 -39 -66 0
-35 -6 -33 -12 -39 -66 0
-35 -6 -60 -9 -63 -12 0
-35 -6 -60 -9 -63 -39 0
-35 -6 -60 -9 -63 -66 0
-35 -6 -60 -9 -12 -39 0
-35 -6 -60 -9 -12 -66 0
-35 -6 -60 -9 -39 -66 0
-35 -6 -60 -63 -12 -39 0
-35 -6 -60 -63 -12 -66 0
-35 -6 -60 -63 -39 -66 0
-35 -6 -60 -12 -39 -66 0
-35 -6 -9 -63 -12 -39 0
-35 -6 -9 -63 -12 -66 0
-35 -6 -9 -63 -39 -66 0
-35 -6 -9 -12 -39 -66 0
-35 -6 -63 -12 -39 -66 0
-35 -33 -60 -9 -63 -12 0
-35 -33 -60 -9 -63 -39 0
-35 -33 -60 -9 -63 -66 0
-35 -33 -60 -9 -12 -39 0
-35 -33 -60 -9 -12 -66 0
-35 -33 -60 -9 -39 -66 0
-35 -33 -60 -63 -12 -39 0
-35 -33 -60 -63 -12 -66 0
-35 -33 -60 -63 -39 -66 0
-35 -33 -60 -12 -39 -66 0
-35 -33 -9 -63 -12 -39 0
-35 -33 -9 -63 -12 -66 0
-35 -33 -9 -63 -39 -66 0
-35 -33 -9 -12 -39 -66 0
-35 -33 -63 -12 -39 -66 0
-35 -60 -9 -63 -12 -39 0
-35 -60 -9 -63 -12 -66 0
-35 -60 -9 -63 -39 -66 0
-35 -60 -9 -12 -39 -66 0
-35 -60 -63 -12 -39 -66 0
-35 -9 -63 -12 -39 -66 0
-35 6 33 60 9 63 0
-35 6 33 60 9 12 0
-35 6 33 60 9 39 0
-35 6 33 60 9 66 0
-35 6 33 60 63 12 0
-35 6 33 60 63 39 0
-35 6 33 60 63 66 0
-35 6 33 60 12 39 0
-35 6 33 60 12 66 0
-35 6 33 60 39 66 0
-35 6 33 9 63 12 0
-35 6 33 9 63 39 0
-35 6 33 9 63 66 0
-35 6 33 9 12 39 0
-35 6 33 9 12 66 0
-35 6 33 9 39 66 0
-35 6 33 63 12 39 0
-35 6 33 63 12 66 0
-35 6 33 63 39 66 0
-35 6 33 12 39 66 0
-35 6 60 9 63 12 0
-35 6 60 9 63 39 0
-35 6 60 9 63 66 0
-35 6 60 9 12 39 0
-35 6 60 9 12 66 0
-35 6 60 9 39 66 0
-35 6 60 63 12 39 0
-35 6 60 63 12 66 0
-35 6 60 63 39 66 0
-35 6 60 12 39 66 0
-35 6 9 63 12 39 0
-35 6 9 63 12 66 0
-35 6 9 63 39 66 0
-35 6 9 12 39 66 0
-35 6 63 12 39 66 0
-35 33 60 9 63 12 0
-35 33 60 9 63 39 0
-35 33 60 9 63 66 0
-35 33 60 9 12 39 0
-35 33 60 9 12 66 0
-35 33 60 9 39 66 0
-35 33 60 63 12 39 0
-35 33 60 63 12 66 0
-35 33 60 63 39 66 0
-35 33 60 12 39 66 0
-35 33 9 63 12 39 0
-35 33 9 63 12 66 0
-35 33 9 63 39 66 0
-35 33 9 12 39 66 0
-35 33 63 12 39 66 0
-35 60 9 63 12 39 0
-35 60 9 63 12 66 0
-35 60 9 63 39 66 0
-35 60 9 12 39 66 0
-35 60 63 12 39 66 0
-35 9 63 12 39 66 0
-36 -4 -31 -58 -7 -61 -10 0
-36 -4 -31 -58 -7 -61 -37 0
-36 -4 -31 -58 -7 -61 -64 0
-36 -4 -31 -58 -7 -10 -37 0
-36 -4 -31 -58 -7 -10 -64 0
-36 -4 -31 -58 -7 -37 -64 0
-36 -4 -31 -58 -61 -10 -37 0
-36 -4 -31 -58 -61 -10 -64 0
-36 -4 -31 -58 -61 -37 -64 0
-36 -4 -31 -58 -10 -37 -64 0
-36 -4 -31 -7 -61 -10 -37 0
-36 -4 -31 -7 -61 -10 -64 0
-36 -4 -31 -7 -61 -37 -64 0
-36 -4 -31 -7 -10 -37 -64 0
-36 -4 -31 -61 -10 -37 -64 0
-36 -4 -58 -7 -61 -10 -37 0
-36 -4 -58 -7 -61 -10 -64 0
-36 -4 -58 -7 -61 -37 -64 0
-36 -4 -58 -7 -10 -37 -64 0
-36 -4 -58 -61 -10 -37 -64 0
-36 -4 -7 -61 -10 -37 -64 0
-36 -31 -58 -7 -61 -10 -37 0
-36 -31 -58 -7 -61 -10 -64 0
-36 -31 -58 -7 -61 -37 -64 0
-36 -31 -58 -7 -10 -37 -64 0
-36 -31 -58 -61 -10 -37 -64 0
-36 -31 -7 -61 -10 -37 -64 0
-36 -58 -7 -61 -10 -37 -64 0
-36 4 31 58 7 0
-36 4 31 58 61 0
-36 4 31 58 10 0
-36 4 31 58 37 0
-36 4 31 58 64 0
-36 4 31 7 61 0
-36 4 31 7 10 0
-36 4 31 7 37 0
-36 4 31 7 64 0
-36 4 31 61 10 0
-36 4 31 61 37 0
-36 4 31 61 64 0
-36 4 31 10 37 0
-36 4 31 10 64 0
-36 4 31 37 64 0
-36 4 58 7 61 0
-36 4 58 7 10 0
-36 4 58 7 37 0
-36 4 58 7 64 0
-36 4 58 61 10 0
-36 4 58 61 37 0
-36 4 58 61 64 0
-36 4 58 10 37 0
-36 4 58 10 64 0
-36 4 58 37 64 0
-36 4 7 61 10 0
-36 4 7 61 37 0
-36 4 7 61 64 0
-36 4 7 10 37 0
-36 4 7 10 64 0
-36 4 7 37 64 0
-36 4 61 10 37 0
-36 4 61 10 64 0
-36 4 61 37 64 0
-36 4 10 37 64 0
-36 31 58 7 61 0
-36 31 58 7 10 0
-36 31 58 7 37 0
-36 31 58 7 64 0
-36 31 58 61 10 0
-36 31 58 61 37 0
-36 31 58 61 64 0
-36 31 58 10 37 0
-36 31 58 10 64 0
-36 31 58 37 64 0
-36 31 7 61 10 0
-36 31 7 61 37 0
-36 31 7 61 64 0
-36 31 7 10 37 0
-36 31 7 10 64 0
-36 31 7 37 64 0
-36 31 61 10 37 0
-36 31 61 10 64 0
-36 31 61 37 64 0
-36 31 10 37 64 0
-36 58 7 61 10 0
-36 58 7 61 37 0
-36 58 7 61 64 0
-36 58 7 10 37 0
-36 58 7 10 64 0
-36 58 7 37 64 0
-36 58 61 10 37 0
-36 58 61 10 64 0
-36 58 61 37 64 0
-36 58 10 37 64 0
-36 7 61 10 37 0
-36 7 61 10 64 0
-36 7 61 37 64 0
-36 7 10 37 64 0
-36 61 10 37 64 0
-37 -38 0
-37 -39 0
-38 -39 0
-37 -8 -35 0
-37 -8 -62 0
-37 -8 -11 0
-37 -8 -65 0
-37 -8 -14 0
-37 -8 -41 0
-37 -8 -68 0
-37 -35 -62 0
-37 -35 -11 0
-37 -35 -65 0
-37 -35 -14 0
-37 -35 -41 0
-37 -35 -68 0
-37 -62 -11 0
-37 -62 -65 0
-37 -62 -14 0
-37 -62 -41 0
-37 -62 -68 0
-37 -11 -65 0
-37 -11 -14 0
-37 -11 -41 0
-37 -11 -68 0
-37 -65 -14 0
-37 -65 -41 0
-37 -65 -68 0
-37 -14 -41 0
-37 -14 -68 0
-37 -41 -68 0
-37 8 35 62 11 65 14 41 68 0
-38 -9 -36 -63 -12 -66 0
-38 -9 -36 -63 -12 -15 0
-38 -9 -36 -63 -12 -42 0
-38 -9 -36 -63 -12 -69 0
-38 -9 -36 -63 -66 -15 0
-38 -9 -36 -63 -66 -42 0
-38 -9 -36 -63 -66 -69 0
-38 -9 -36 -63 -15 -42 0
-38 -9 -36 -63 -15 -69 0
-38 -9 -36 -63 -42 -69 0
-38 -9 -36 -12 -66 -15 0
-38 -9 -36 -12 -66 -42 0
-38 -9 -36 -12 -66 -69 0
-38 -9 -36 -12 -15 -42 0
-38 -9 -36 -12 -15 -69 0
-38 -9 -36 -12 -42 -69 0
-38 -9 -36 -66 -15 -42 0
-38 -9 -36 -66 -15 -69 0
-38 -9 -36 -66 -42 -69 0
-38 -9 -36 -15 -42 -69 0
-38 -9 -63 -12 -66 -15 0
-38 -9 -63 -12 -66 -42 0
-38 -9 -63 -12 -66 -69 0
-38 -9 -63 -12 -15 -42 0
-38 -9 -63 -12 -15 -69 0
-38 -9 -63 -12 -42 -69 0
-38 -9 -63 -66 -15 -42 0
-38 -9 -63 -66 -15 -69 0
-38 -9 -63 -66 -42 -69 0
-38 -9 -63 -15 -42 -69 0
-38 -9 -12 -66 -15 -42 0
-38 -9 -12 -66 -15 -69 0
-38 -9 -12 -66 -42 -69 0
-38 -9 -12 -15 -42 -69 0
-38 -9 -66 -15 -42 -69 0
-38 -36 -63 -12 -66 -15 0
-38 -36 -63 -12 -66 -42 0
-38 -36 -63 -12 -66 -69 0
-38 -36 -63 -12 -15 -42 0
-38 -36 -63 -12 -15 -69 0
-38 -36 -63 -12 -42 -69 0
-38 -36 -63 -66 -15 -42 0
-38 -36 -63 -66 -15 -69 0
-38 -36 -63 -66 -42 -69 0
-38 -36 -63 -15 -42 -69 0
-38 -36 -12 -66 -15 -42 0
-38 -36 -12 -66 -15 -69 0
-38 -36 -12 -66 -42 -69 0
-38 -36 -12 -15 -42 -69 0
-38 -36 -66 -15 -42 -69 0
-38 -63 -12 -66 -15 -42 0
-38 -63 -12 -66 -15 -69 0
-38 -63 -12 -66 -42 -69 0
-38 -63 -12 -15 -42 -69 0
-38 -63 -66 -15 -42 -69 0
-38 -12 -66 -15 -42 -69 0
-38 9 36 63 12 66 0
-38 9 36 63 12 15 0
-38 9 36 63 12 42 0
-38 9 36 63 12 69 0
-38 9 36 63 66 15 0
-38 9 36 63 66 42 0
-38 9 36 63 66 69 0
-38 9 36 63 15 42 0
-38 9 36 63 15 69 0
-38 9 36 63 42 69 0
-38 9 36 12 66 15 0
-38 9 36 12 66 42 0
-38 9 36 12 66 69 0
-38 9 36 12 15 42 0
-38 9 36 12 15 69 0
-38 9 36 12 42 69 0
-38 9 36 66 15 42 0
-38 9 36 66 15 69 0
-38 9 36 66 42 69 0
-38 9 36 15 42 69 0
-38 9 63 12 66 15 0
-38 9 63 12 66 42 0
-38 9 63 12 66 69 0
-38 9 63 12 15 42 0
-38 9 63 12 15 69 0
-38 9 63 12 42 69 0
-38 9 63 66 15 42 0
-38 9 63 66 15 69 0
-38 9 63 66 42 69 0
-38 9 63 15 42 69 0
-38 9 12 66 15 42 0
-38 9 12 66 15 69 0
-38 9 12 66 42 69 0
-38 9 12 15 42 69 0
-38 9 66 15 42 69 0
-38 36 63 12 66 15 0
-38 36 63 12 66 42 0
-38 36 63 12 66 69 0
-38 36 63 12 15 42 0
-38 36 63 12 15 69 0
-38 36 63 12 42 69 0
-38 36 63 66 15 42 0
-38 36 63 66 15 69 0
-38 36 63 66 42 69 0
-38 36 63 15 42 69 0
-38 36 12 66 15 42 0
-38 36 12 66 15 69 0
-38 36 12 66 42 69 0
-38 36 12 15 42 69 0
-38 36 66 15 42 69 0
-38 63 12 66 15 42 0
-38 63 12 66 15 69 0
-38 63 12 66 42 69 0
-38 63 12 15 42 69 0
-38 63 66 15 42 69 0
-38 12 66 15 42 69 0
-39 -7 -34 -61 -10 -64 -13 0
-39 -7 -34 -61 -10 -64 -40 0
-39 -7 -34 -61 -10 -64 -67 0
-39 -7 -34 -61 -10 -13 -40 0
-39 -7 -34 -61 -10 -13 -67 0
-39 -7 -34 -61 -10 -40 -67 0
-39 -7 -34 -61 -64 -13 -40 0
-39 -7 -34 -61 -64 -13 -67 0
-39 -7 -34 -61 -64 -40 -67 0
-39 -7 -34 -61 -13 -40 -67 0
-39 -7 -34 -10 -64 -13 -40 0
-39 -7 -34 -10 -64 -13 -67 0
-39 -7 -34 -10 -64 -40 -67 0
-39 -7 -34 -10 -13 -40 -67 0
-39 -7 -34 -64 -13 -40 -67 0
-39 -7 -61 -10 -64 -13 -40 0
-39 -7 -61 -10 -64 -13 -67 0
-39 -7 -61 -10 -64 -40 -67 0
-39 -7 -61 -10 -13 -40 -67 0
-39 -7 -61 -64 -13 -40 -67 0
-39 -7 -10 -64 -13 -40 -67 0
-39 -34 -61 -10 -64 -13 -40 0
-39 -34 -61 -10 -64 -13 -67 0
-39 -34 -61 -10 -64 -40 -67 0
-39 -34 -61 -10 -13 -40 -67 0
-39 -34 -61 -64 -13 -40 -67 0
-39 -34 -10 -64 -13 -40 -67 0
-39 -61 -10 -64 -13 -40 -67 0
-39 7 34 61 10 0
-39 7 34 61 64 0
-39 7 34 61 13 0
-39 7 34 61 40 0
-39 7 34 61 67 0
-39 7 34 10 64 0
-39 7 34 10 13 0
-39 7 34 10 40 0
-39 7 34 10 67 0
-39 7 34 64 13 0
-39 7 34 64 40 0
-39 7 34 64 67 0
-39 7 34 13 40 0
-39 7 34 13 67 0
-39 7 34 40 67 0
-39 7 61 10 64 0
-39 7 61 10 13 0
-39 7 61 10 40 0
-39 7 61 10 67 0
-39 7 61 64 13 0
-39 7 61 64 40 0
-39 7 61 64 67 0
-39 7 61 13 40 0
-39 7 61 13 67 0
-39 7 61 40 67 0
-39 7 10 64 13 0
-39 7 10 64 40 0
-39 7 10 64 67 0
-39 7 10 13 40 0
-39 7 10 13 67 0
-39 7 10 40 67 0
-39 7 64 13 40 0
-39 7 64 13 67 0
-39 7 64 40 67 0
-39 7 13 40 67 0
-39 34 61 10 64 0
-39 34 61 10 13 0
-39 34 61 10 40 0
-39 34 61 10 67 0
-39 34 61 64 13 0
-39 34 61 64 40 0
-39 34 61 64 67 0
-39 34 61 13 40 0
-39 34 61 13 67 0
-39 34 61 40 67 0
-39 34 10 64 13 0
-39 34 10 64 40 0
-39 34 10 64 67 0
-39 34 10 13 40 0
-39 34 10 13 67 0
-39 34 10 40 67 0
-39 34 64 13 40 0
-39 34 64 13 67 0
-39 34 64 40 67 0
-39 34 13 40 67 0
-39 61 10 64 13 0
-39 61 10 64 40 0
-39 61 10 64 67 0
-39 61 10 13 40 0
-39 61 10 13 67 0
-39 61 10 40 67 0
-39 61 64 13 40 0
-39 61 64 13 67 0
-39 61 64 40 67 0
-39 61 13 40 67 0
-39 10 64 13 40 0
-39 10 64 13 67 0
-39 10 64 40 67 0
-39 10 13 40 67 0
-39 64 13 40 67 0
-40 -41 0
-40 -42 0
-41 -42 0
-40 -11 -38 0
-40 -11 -65 0
-40 -11 -14 0
-40 -11 -68 0
-40 -11 -17 0
-40 -11 -44 0
-40 -11 -71 0
-40 -38 -65 0
-40 -38 -14 0
-40 -38 -68 0
-40 -38 -17 0
-40 -38 -44 0
-40 -38 -71 0
-40 -65 -14 0
-40 -65 -68 0
-40 -65 -17 0
-40 -65 -44 0
-40 -65 -71 0
-40 -14 -68 0
-40 -14 -17 0
-40 -14 -44 0
-40 -14 -71 0
-40 -68 -17 0
-40 -68 -44 0
-40 -68 -71 0
-40 -17 -44 0
-40 -17 -71 0
-40 -44 -71 0
-40 11 38 65 14 68 17 44 71 0
-41 -12 -39 -66 -15 -69 0
-41 -12 -39 -66 -15 -18 0
-41 -12 -39 -66 -15 -45 0
-41 -12 -39 -66 -15 -72 0
-41 -12 -39 -66 -69 -18 0
-41 -12 -39 -66 -69 -45 0
-41 -12 -39 -66 -69 -72 0
-41 -12 -39 -66 -18 -45 0
-41 -12 -39 -66 -18 -72 0
-41 -12 -39 -66 -45 -72 0
-41 -12 -39 -15 -69 -18 0
-41 -12 -39 -15 -69 -45 0
-41 -12 -39 -15 -69 -72 0
-41 -12 -39 -15 -18 -45 0
-41 -12 -39 -15 -18 -72 0
-41 -12 -39 -15 -45 -72 0
-41 -12 -39 -69 -18 -45 0
-41 -12 -39 -69 -18 -72 0
-41 -12 -39 -69 -45 -72 0
-41 -12 -39 -18 -45 -72 0
-41 -12 -66 -15 -69 -18 0
-41 -12 -66 -15 -69 -45 0
-41 -12 -66 -15 -69 -72 0
-41 -12 -66 -15 -18 -45 0
-41 -12 -66 -15 -18 -72 0
-41 -12 -66 -15 -45 -72 0
-41 -12 -66 -69 -18 -45 0
-41 -12 -66 -69 -18 -72 0
-41 -12 -66 -69 -45 -72 0
-41 -12 -66 -18 -45 -72 0
-41 -12 -15 -69 -18 -45 0
-41 -12 -15 -69 -18 -72 0
-41 -12 -15 -69 -45 -72 0
-41 -12 -15 -18 -45 -72 0
-41 -12 -69 -18 -45 -72 0
-41 -39 -66 -15 -69 -18 0
-41 -39 -66 -15 -69 -45 0
-41 -39 -66 -15 -69 -72 0
-41 -39 -66 -15 -18 -45 0
-41 -39 -66 -15 -18 -72 0
-41 -39 -66 -15 -45 -72 0
-41 -39 -66 -69 -18 -45 0
-41 -39 -66 -69 -18 -72 0
-41 -39 -66 -69 -45 -72 0
-41 -39 -66 -18 -45 -72 0
-41 -39 -15 -69 -18 -45 0
-41 -39 -15 -69 -18 -72 0
-41 -39 -15 -69 -45 -72 0
-41 -39 -15 -18 -45 -72 0
-41 -39 -69 -18 -45 -72 0
-41 -66 -15 -69 -18 -45 0
-41 -66 -15 -69 -18 -72 0
-41 -66 -15 -69 -45 -72 0
-41 -66 -15 -18 -45 -72 0
-41 -66 -69 -18 -45 -72 0
-41 -15 -69 -18 -45 -72 0
-41 12 39 66 15 69 0
-41 12 39 66 15 18 0
-41 12 39 66 15 45 0
-41 12 39 66 15 72 0
-41 12 39 66 69 18 0
-41 12 39 66 69 45 0
-41 12 39 66 69 72 0
-41 12 39 66 18 45 0
-41 12 39 66 18 72 0
-41 12 39 66 45 72 0
-41 12 39 15 69 18 0
-41 12 39 15 69 45 0
-41 12 39 15 69 72 0
-41 12 39 15 18 45 0
-41 12 39 15 18 72 0
-41 12 39 15 45 72 0
-41 12 39 69 18 45 0
-41 12 39 69 18 72 0
-41 12 39 69 45 72 0
-41 12 39 18 45 72 0
-41 12 66 15 69 18 0
-41 12 66 15 69 45 0
-41 12 66 15 69 72 0
-41 12 66 15 18 45 0
-41 12 66 15 18 72 0
-41 12 66 15 45 72 0
-41 12 66 69 18 45 0
-41 12 66 69 18 72 0
-41 12 66 69 45 72 0
-41 12 66 18 45 72 0
-41 12 15 69 18 45 0
-41 12 15 69 18 72 0
-41 12 15 69 45 72 0
-41 12 15 18 45 72 0
-41 12 69 18 45 72 0
-41 39 66 15 69 18 0
-41 39 66 15 69 45 0
-41 39 66 15 69 72 0
-41 39 66 15 18 45 0
-41 39 66 15 18 72 0
-41 39 66 15 45 72 0
-41 39 66 69 18 45 0
-41 39 66 69 18 72 0
-41 39 66 69 45 72 0
-41 39 66 18 45 72 0
-41 39 15 69 18 45 0
-41 39 15 69 18 72 0
-41 39 15 69 45 72 0
-41 39 15 18 45 72 0
-41 39 69 18 45 72 0
-41 66 15 69 18 45 0
-41 66 15 69 18 72 0
-41 66 15 69 45 72 0
-41 66 15 18 45 72 0
-41 66 69 18 45 72 0
-41 15 69 18 45 72 0
-42 -10 -37 -64 -13 -67 -16 0
-42 -10 -37 -64 -13 -67 -43 0
-42 -10 -37 -64 -13 -67 -70 0
-42 -10 -37 -64 -13 -16 -43 0
-42 -10 -37 -64 -13 -16 -70 0
-42 -10 -37 -64 -13 -43 -70 0
-42 -10 -37 -64 -67 -16 -43 0
-42 -10 -37 -64 -67 -16 -70 0
-42 -10 -37 -64 -67 -43 -70 0
-42 -10 -37 -64 -16 -43 -70 0
-42 -10 -37 -13 -67 -16 -43 0
-42 -10 -37 -13 -67 -16 -70 0
-42 -10 -37 -13 -67 -43 -70 0
-42 -10 -37 -13 -16 -43 -70 0
-42 -10 -37 -67 -16 -43 -70 0
-42 -10 -64 -13 -67 -16 -43 0
-42 -10 -64 -13 -67 -16 -70 0
-42 -10 -64 -13 -67 -43 -70 0
-42 -10 -64 -13 -16 -43 -70 0
-42 -10 -64 -67 -16 -43 -70 0
-42 -10 -13 -67 -16 -43 -70 0
-42 -37 -64 -13 -67 -16 -43 0
-42 -37 -64 -13 -67 -16 -70 0
-42 -37 -64 -13 -67 -43 -70 0
-42 -37 -64 -13 -16 -43 -70 0
-42 -37 -64 -67 -16 -43 -70 0
-42 -37 -13 -67 -16 -43 -70 0
-42 -64 -13 -67 -16 -43 -70 0
-42 10 37 64 13 0
-42 10 37 64 67 0
-42 10 37 64 16 0
-42 10 37 64 43 0
-42 10 37 64 70 0
-42 10 37 13 67 0
-42 10 37 13 16 0
-42 10 37 13 43 0
-42 10 37 13 70 0
-42 10 37 67 16 0
-42 10 37 67 43 0
-42 10 37 67 70 0
-42 10 37 16 43 0
-42 10 37 16 70 0
-42 10 37 43 70 0
-42 10 64 13 67 0
-42 10 64 13 16 0
-42 10 64 13 43 0
-42 10 64 13 70 0
-42 10 64 67 16 0
-42 10 64 67 43 0
-42 10 64 67 70 0
-42 10 64 16 43 0
-42 10 64 16 70 0
-42 10 64 43 70 0
-42 10 13 67 16 0
-42 10 13 67 43 0
-42 10 13 67 70 0
-42 10 13 16 43 0
-42 10 13 16 70 0
-42 10 13 43 70 0
-42 10 67 16 43 0
-42 10 67 16 70 0
-42 10 67 43 70 0
-42 10 16 43 70 0
-42 37 64 13 67 0
-42 37 64 13 16 0
-42 37 64 13 43 0
-42 37 64 13 70 0
-42 37 64 67 16 0
-42 37 64 67 43 0
-42 37 64 67 70 0
-42 37 64 16 43 0
-42 37 64 16 70 0
-42 37 64 43 70 0
-42 37 13 67 16 0
-42 37 13 67 43 0
-42 37 13 67 70 0
-42 37 13 16 43 0
-42 37 13 16 70 0
-42 37 13 43 70 0
-42 37 67 16 43 0
-42 37 67 16 70 0
-42 37 67 43 70 0
-42 37 16 43 70 0
-42 64 13 67 16 0
-42 64 13 67 43 0
-42 64 13 67 70 0
-42 64 13 16 43 0
-42 64 13 16 70 0
-42 64 13 43 70 0
-42 64 67 16 43 0
-42 64 67 16 70 0
-42 64 67 43 70 0
-42 64 16 43 70 0
-42 13 67 16 43 0
-42 13 67 16 70 0
-42 13 67 43 70 0
-42 13 16 43 70 0
-42 67 16 43 70 0
-43 -44 0
-43 -45 0
-44 -45 0
-43 -14 -41 0
-43 -14 -68 0
-43 -14 -17 0
-43 -14 -71 0
-43 -14 -20 0
-43 -14 -47 0
-43 -14 -74 0
-43 -41 -68 0
-43 -41 -17 0
-43 -41 -71 0
-43 -41 -20 0
-43 -41 -47 0
-43 -41 -74 0
-43 -68 -17 0
-43 -68 -71 0
-43 -68 -20 0
-43 -68 -47 0
-43 -68 -74 0
-43 -17 -71 0
-43 -17 -20 0
-43 -17 -47 0
-43 -17 -74 0
-43 -71 -20 0
-43 -71 -47 0
-43 -71 -74 0
-43 -20 -47 0
-43 -20 -74 0
-43 -47 -74 0
-43 14 41 68 17 71 20 47 74 0
-44 -15 -42 -69 -18 -72 0
-44 -15 -42 -69 -18 -21 0
-44 -15 -42 -69 -18 -48 0
-44 -15 -42 -69 -18 -75 0
-44 -15 -42 -69 -72 -21 0
-44 -15 -42 -69 -72 -48 0
-44 -15 -42 -69 -72 -75 0
-44 -15 -42 -69 -21 -48 0
-44 -15 -42 -69 -21 -75 0
-44 -15 -42 -69 -48 -75 0
-44 -15 -42 -18 -72 -21 0
-44 -15 -42 -18 -72 -48 0
-44 -15 -42 -18 -72 -75 0
-44 -15 -42 -18 -21 -48 0
-44 -15 -42 -18 -21 -75 0
-44 -15 -42 -18 -48 -75 0
-44 -15 -42 -72 -21 -48 0
-44 -15 -42 -72 -21 -75 0
-44 -15 -42 -72 -48 -75 0
-44 -15 -42 -21 -48 -75 0
-44 -15 -69 -18 -72 -21 0
-44 -15 -69 -18 -72 -48 0
-44 -15 -69 -18 -72 -75 0
-44 -15 -69 -18 -21 -48 0
-44 -15 -69 -18 -21 -75 0
-44 -15 -69 -18 -48 -75 0
-44 -15 -69 -72 -21 -48 0
-44 -15 -69 -72 -21 -75 0
-44 -15 -69 -72 -48 -75 0
-44 -15 -69 -21 -48 -75 0
-44 -15 -18 -72 -21 -48 0
-44 -15 -18 -72 -21 -75 0
-44 -15 -18 -72 -48 -75 0
-44 -15 -18 -21 -48 -75 0
-44 -15 -72 -21 -48 -75 0
-44 -42 -69 -18 -72 -21 0
-44 -42 -69 -18 -72 -48 0
-44 -42 -69 -18 -72 -75 0
-44 -42 -69 -18 -21 -48 0
-44 -42 -69 -18 -21 -75 0
-44 -42 -69 -18 -48 -75 0
-44 -42 -69 -72 -21 -48 0
-44 -42 -69 -72 -21 -75 0
-44 -42 -69 -72 -48 -75 0
-44 -42 -69 -21 -48 -75 0
-44 -42 -18 -72 -21 -48 0
-44 -42 -18 -72 -21 -75 0
-44 -42 -18 -72 -48 -75 0
-44 -42 -18 -21 -48 -75 0
-44 -42 -72 -21 -48 -75 0
-44 -69 -18 -72 -21 -48 0
-44 -69 -18 -72 -21 -75 0
-44 -69 -18 -72 -48 -75 0
-44 -69 -18 -21 -48 -75 0
-44 -69 -72 -21 -48 -75 0
-44 -18 -72 -21 -48 -75 0
-44 15 42 69 18 72 0
-44 15 42 69 18 21 0
-44 15 42 69 18 48 0
-44 15 42 69 18 75 0
-44 15 42 69 72 21 0
-44 15 42 69 72 48 0
-44 15 42 69 72 75 0
-44 15 42 69 21 48 0
-44 15 42 69 21 75 0
-44 15 42 69 48 75 0
-44 15 42 18 72 21 0
-44 15 42 18 72 48 0
-44 15 42 18 72 75 0
-44 15 42 18 21 48 0
-44 15 42 18 21 75 0
-44 15 42 18 48 75 0
-44 15 42 72 21 48 0
-44 15 42 72 21 75 0
-44 15 42 72 48 75 0
-44 15 42 21 48 75 0
-44 15 69 18 72 21 0
-44 15 69 18 72 48 0
-44 15 69 18 72 75 0
-44 15 69 18 21 48 0
-44 15 69 18 21 75 0
-44 15 69 18 48 75 0
-44 15 69 72 21 48 0
-44 15 69 72 21 75 0
-44 15 69 72 48 75 0
-44 15 69 21 48 75 0
-44 15 18 72 21 48 0
-44 15 18 72 21 75 0
-44 15 18 72 48 75 0
-44 15 18 21 48 75 0
-44 15 72 21 48 75 0
-44 42 69 18 72 21 0
-44 42 69 18 72 48 0
-44 42 69 18 72 75 0
-44 42 69 18 21 48 0
-44 42 69 18 21 75 0
-44 42 69 18 48 75 0
-44 42 69 72 21 48 0
-44 42 69 72 21 75 0
-44 42 69 72 48 75 0
-44 42 69 21 48 75 0
-44 42 18 72 21 48 0
-44 42 18 72 21 75 0
-44 42 18 72 48 75 0
-44 42 18 21 48 75 0
-44 42 72 21 48 75 0
-44 69 18 72 21 48 0
-44 69 18 72 21 75 0
-44 69 18 72 48 75 0
-44 69 18 21 48 75 0
-44 69 72 21 48 75 0
-44 18 72 21 48 75 0
-45 -13 -40 -67 -16 -70 -19 0
-45 -13 -40 -67 -16 -70 -46 0
-45 -13 -40 -67 -16 -70 -73 0
-45 -13 -40 -67 -16 -19 -46 0
-45 -13 -40 -67 -16 -19 -73 0
-45 -13 -40 -67 -16 -46 -73 0
-45 -13 -40 -67 -70 -19 -46 0
-45 -13 -40 -67 -70 -19 -73 0
-45 -13 -40 -67 -70 -46 -73 0
-45 -13 -40 -67 -19 -46 -73 0
-45 -13 -40 -16 -70 -19 -46 0
-45 -13 -40 -16 -70 -19 -73 0
-45 -13 -40 -16 -70 -46 -73 0
-45 -13 -40 -16 -19 -46 -73 0
-45 -13 -40 -70 -19 -46 -73 0
-45 -13 -67 -16 -70 -19 -46 0
-45 -13 -67 -16 -70 -19 -73 0
-45 -13 -67 -16 -70 -46 -73 0
-45 -13 -67 -16 -19 -46 -73 0
-45 -13 -67 -70 -19 -46 -73 0
-45 -13 -16 -70 -19 -46 -73 0
-45 -40 -67 -16 -70 -19 -46 0
-45 -40 -67 -16 -70 -19 -73 0
-45 -40 -67 -16 -70 -46 -73 0
-45 -40 -67 -16 -19 -46 -73 0
-45 -40 -67 -70 -19 -46 -73 0
-45 -40 -16 -70 -19 -46 -73 0
-45 -67 -16 -70 -19 -46 -73 0
-45 13 40 67 16 0
-45 13 40 67 70 0
-45 13 40 67 19 0
-45 13 40 67 46 0
-45 13 40 67 73 0
-45 13 40 16 70 0
-45 13 40 16 19 0
-45 13 40 16 46 0
-45 13 40 16 73 0
-45 13 40 70 19 0
-45 13 40 70 46 0
-45 13 40 70 73 0
-45 13 40 19 46 0
-45 13 40 19 73 0
-45 13 40 46 73 0
-45 13 67 16 70 0
-45 13 67 16 19 0
-45 13 67 16 46 0
-45 13 67 16 73 0
-45 13 67 70 19 0
-45 13 67 70 46 0
-45 13 67 70 73 0
-45 13 67 19 46 0
-45 13 67 19 73 0
-45 13 67 46 73 0
-45 13 16 70 19 0
-45 13 16 70 46 0
-45 13 16 70 73 0
-45 13 16 19 46 0
-45 13 16 19 73 0
-45 13 16 46 73 0
-45 13 70 19 46 0
-45 13 70 19 73 0
-45 13 70 46 73 0
-45 13 19 46 73 0
-45 40 67 16 70 0
-45 40 67 16 19 0
-45 40 67 16 46 0
-45 40 67 16 73 0
-45 40 67 70 19 0
-45 40 67 70 46 0
-45 40 67 70 73 0
-45 40 67 19 46 0
-45 40 67 19 73 0
-45 40 67 46 73 0
-45 40 16 70 19 0
-45 40 16 70 46 0
-45 40 16 70 73 0
-45 40 16 19 46 0
-45 40 16 19 73 0
-45 40 16 46 73 0
-45 40 70 19 46 0
-45 40 70 19 73 0
-45 40 70 46 73 0
-45 40 19 46 73 0
-45 67 16 70 19 0
-45 67 16 70 46 0
-45 67 16 70 73 0
-45 67 16 19 46 0
-45 67 16 19 73 0
-45 67 16 46 73 0
-45 67 70 19 46 0
-45 67 70 19 73 0
-45 67 70 46 73 0
-45 67 19 46 73 0
-45 16 70 19 46 0
-45 16 70 19 73 0
-45 16 70 46 73 0
-45 16 19 46 73 0
-45 70 19 46 73 0
-46 -47 0
-46 -48 0
-47 -48 0
-46 -17 -44 0
-46 -17 -71 0
-46 -17 -20 0
-46 -17 -74 0
-46 -17 -23 0
-46 -17 -50 0
-46 -17 -77 0
-46 -44 -71 0
-46 -44 -20 0
-46 -44 -74 0
-46 -44 -23 0
-46 -44 -50 0
-46 -44 -77 0
-46 -71 -20 0
-46 -71 -74 0
-46 -71 -23 0
-46 -71 -50 0
-46 -71 -77 0
-46 -20 -74 0
-46 -20 -23 0
-46 -20 -50 0
-46 -20 -77 0
-46 -74 -23 0
-46 -74 -50 0
-46 -74 -77 0
-46 -23 -50 0
-46 -23 -77 0
-46 -50 -77 0
-46 17 44 71 20 74 23 50 77 0
-47 -18 -45 -72 -21 -75 0
-47 -18 -45 -72 -21 -24 0
-47 -18 -45 -72 -21 -51 0
-47 -18 -45 -72 -21 -78 0
-47 -18 -45 -72 -75 -24 0
-47 -18 -45 -72 -75 -51 0
-47 -18 -45 -72 -75 -78 0
-47 -18 -45 -72 -24 -51 0
-47 -18 -45 -72 -24 -78 0
-47 -18 -45 -72 -51 -78 0
-47 -18 -45 -21 -75 -24 0
-47 -18 -45 -21 -75 -51 0
-47 -18 -45 -21 -75 -78 0
-47 -18 -45 -21 -24 -51 0
-47 -18 -45 -21 -24 -78 0
-47 -18 -45 -21 -51 -78 0
-47 -18 -45 -75 -24 -51 0
-47 -18 -45 -75 -24 -78 0
-47 -18 -45 -75 -51 -78 0
-47 -18 -45 -24 -51 -78 0
-47 -18 -72 -21 -75 -24 0
-47 -18 -72 -21 -75 -51 0
-47 -18 -72 -21 -75 -78 0
-47 -18 -72 -21 -24 -51 0
-47 -18 -72 -21 -24 -78 0
-47 -18 -72 -21 -51 -78 0
-47 -18 -72 -75 -24 -51 0
-47 -18 -72 -75 -24 -78 0
-47 -18 -72 -75 -51 -78 0
-47 -18 -72 -24 -51 -78 0
-47 -18 -21 -75 -24 -51 0
-47 -18 -21 -75 -24 -78 0
-47 -18 -21 -75 -51 -78 0
-47 -18 -21 -24 -51 -78 0
-47 -18 -75 -24 -51 -78 0
-47 -45 -72 -21 -75 -24 0
-47 -45 -72 -21 -75 -51 0
-47 -45 -72 -21 -75 -78 0
-47 -45 -72 -21 -24 -51 0
-47 -45 -72 -21 -24 -78 0
-47 -45 -72 -21 -51 -78 0
-47 -45 -72 -75 -24 -51 0
-47 -45 -72 -75 -24 -78 0
-47 -45 -72 -75 -51 -78 0
-47 -45 -72 -24 -51 -78 0
-47 -45 -21 -75 -24 -51 0
-47 -45 -21 -75 -24 -78 0
-47 -45 -21 -75 -51 -78 0
-47 -45 -21 -24 -51 -78 0
-47 -45 -75 -24 -51 -78 0
-47 -72 -21 -75 -24 -51 0
-47 -72 -21 -75 -24 -78 0
-47 -72 -21 -75 -51 -78 0
-47 -72 -21 -24 -51 -78 0
-47 -72 -75 -24 -51 -78 0
-47 -21 -75 -24 -51 -78 0
-47 18 45 72 21 75 0
-47 18 45 72 21 24 0
-47 18 45 72 21 51 0
-47 18 45 72 21 78 0
-47 18 45 72 75 24 0
-47 18 45 72 75 51 0
-47 18 45 72 75 78 0
-47 18 45 72 24 51 0
-47 18 45 72 24 78 0
-47 18 45 72 51 78 0
-47 18 45 21 75 24 0
-47 18 45 21 75 51 0
-47 18 45 21 75 78 0
-47 18 45 21 24 51 0
-47 18 45 21 24 78 0
-47 18 45 21 51 78 0
-47 18 45 75 24 51 0
-47 18 45 75 24 78 0
-47 18 45 75 51 78 0
-47 18 45 24 51 78 0
-47 18 72 21 75 24 0
-47 18 72 21 75 51 0
-47 18 72 21 75 78 0
-47 18 72 21 24 51 0
-47 18 72 21 24 78 0
-47 18 72 21 51 78 0
-47 18 72 75 24 51 0
-47 18 72 75 24 78 0
-47 18 72 75 51 78 0
-47 18 72 24 51 78 0
-47 18 21 75 24 51 0
-47 18 21 75 24 78 0
-47 18 21 75 51 78 0
-47 18 21 24 51 78 0
-47 18 75 24 51 78 0
-47 45 72 21 75 24 0
-47 45 72 21 75 51 0
-47 45 72 21 75 78 0
-47 45 72 21 24 51 0
-47 45 72 21 24 78 0
-47 45 72 21 51 78 0
-47 45 72 75 24 51 0
-47 45 72 75 24 78 0
-47 45 72 75 51 78 0
-47 45 72 24 51 78 0
-47 45 21 75 24 51 0
-47 45 21 75 24 78 0
-47 45 21 75 51 78 0
-47 45 21 24 51 78 0
-47 45 75 24 51 78 0
-47 72 21 75 24 51 0
-47 72 21 75 24 78 0
-47 72 21 75 51 78 0
-47 72 21 24 51 78 0
-47 72 75 24 51 78 0
-47 21 75 24 51 78 0
-48 -16 -43 -70 -19 -73 -22 0
-48 -16 -43 -70 -19 -73 -49 0
-48 -16 -43 -70 -19 -73 -76 0
-48 -16 -43 -70 -19 -22 -49 0
-48 -16 -43 -70 -19 -22 -76 0
-48 -16 -43 -70 -19 -49 -76 0
-48 -16 -43 -70 -73 -22 -49 0
-48 -16 -43 -70 -73 -22 -76 0
-48 -16 -43 -70 -73 -49 -76 0
-48 -16 -43 -70 -22 -49 -76 0
-48 -16 -43 -19 -73 -22 -49 0
-48 -16 -43 -19 -73 -22 -76 0
-48 -16 -43 -19 -73 -49 -76 0
-48 -16 -43 -19 -22 -49 -76 0
-48 -16 -43 -73 -22 -49 -76 0
-48 -16 -70 -19 -73 -22 -49 0
-48 -16 -70 -19 -73 -22 -76 0
-48 -16 -70 -19 -73 -49 -76 0
-48 -16 -70 -19 -22 -49 -76 0
-48 -16 -70 -73 -22 -49 -76 0
-48 -16 -19 -73 -22 -49 -76 0
-48 -43 -70 -19 -73 -22 -49 0
-48 -43 -70 -19 -73 -22 -76 0
-48 -43 -70 -19 -73 -49 -76 0
-48 -43 -70 -19 -22 -49 -76 0
-48 -43 -70 -73 -22 -49 -76 0
-48 -43 -19 -73 -22 -49 -76 0
-48 -70 -19 -73 -22 -49 -76 0
-48 16 43 70 19 0
-48 16 43 70 73 0
-48 16 43 70 22 0
-48 16 43 70 49 0
-48 16 43 70 76 0
-48 16 43 19 73 0
-48 16 43 19 22 0
-48 16 43 19 49 0
-48 16 43 19 76 0
-48 16 43 73 22 0
-48 16 43 73 49 0
-48 16 43 73 76 0
-48 16 43 22 49 0
-48 16 43 22 76 0
-48 16 43 49 76 0
-48 16 70 19 73 0
-48 16 70 19 22 0
-48 16 70 19 49 0
-48 16 70 19 76 0
-48 16 70 73 22 0
-48 16 70 73 49 0
-48 16 70 73 76 0
-48 16 70 22 49 0
-48 16 70 22 76 0
-48 16 70 49 76 0
-48 16 19 73 22 0
-48 16 19 73 49 0
-48 16 19 73 76 0
-48 16 19 22 49 0
-48 16 19 22 76 0
-48 16 19 49 76 0
-48 16 73 22 49 0
-48 16 73 22 76 0
-48 16 73 49 76 0
-48 16 22 49 76 0
-48 43 70 19 73 0
-48 43 70 19 22 0
-48 43 70 19 49 0
-48 43 70 19 76 0
-48 43 70 73 22 0
-48 43 70 73 49 0
-48 43 70 73 76 0
-48 43 70 22 49 0
-48 43 70 22 76 0
-48 43 70 49 76 0
-48 43 19 73 22 0
-48 43 19 73 49 0
-48 43 19 73 76 0
-48 43 19 22 49 0
-48 43 19 22 76 0
-48 43 19 49 76 0
-48 43 73 22 49 0
-48 43 73 22 76 0
-48 43 73 49 76 0
-48 43 22 49 76 0
-48 70 19 73 22 0
-48 70 19 73 49 0
-48 70 19 73 76 0
-48 70 19 22 49 0
-48 70 19 22 76 0
-48 70 19 49 76 0
-48 70 73 22 49 0
-48 70 73 22 76 0
-48 70 73 49 76 0
-48 70 22 49 76 0
-48 19 73 22 49 0
-48 19 73 22 76 0
-48 19 73 49 76 0
-48 19 22 49 76 0
-48 73 22 49 76 0
-49 -50 0
-49 -51 0
-50 -51 0
-49 -20 -47 0
-49 -20 -74 0
-49 -20 -23 0
-49 -20 -77 0
-49 -20 -26 0
-49 -20 -53 0
-49 -20 -80 0
-49 -47 -74 0
-49 -47 -23 0
-49 -47 -77 0
-49 -47 -26 0
-49 -47 -53 0
-49 -47 -80 0
-49 -74 -23 0
-49 -74 -77 0
-49 -74 -26 0
-49 -74 -53 0
-49 -74 -80 0
-49 -23 -77 0
-49 -23 -26 0
-49 -23 -53 0
-49 -23 -80 0
-49 -77 -26 0
-49 -77 -53 0
-49 -77 -80 0
-49 -26 -53 0
-49 -26 -80 0
-49 -53 -80 0
-49 20 47 74 23 77 26 53 80 0
-50 -21 -48 -75 -24 -78 0
-50 -21 -48 -75 -24 -27 0
-50 -21 -48 -75 -24 -54 0
-50 -21 -48 -75 -24 -81 0
-50 -21 -48 -75 -78 -27 0
-50 -21 -48 -75 -78 -54 0
-50 -21 -48 -75 -78 -81 0
-50 -21 -48 -75 -27 -54 0
-50 -21 -48 -75 -27 -81 0
-50 -21 -48 -75 -54 -81 0
-50 -21 -48 -24 -78 -27 0
-50 -21 -48 -24 -78 -54 0
-50 -21 -48 -24 -78 -81 0
-50 -21 -48 -24 -27 -54 0
-50 -21 -48 -24 -27 -81 0
-50 -21 -48 -24 -54 -81 0
-50 -21 -48 -78 -27 -54 0
-50 -21 -48 -78 -27 -81 0
-50 -21 -48 -78 -54 -81 0
-50 -21 -48 -27 -54 -81 0
-50 -21 -75 -24 -78 -27 0
-50 -21 -75 -24 -78 -54 0
-50 -21 -75 -24 -78 -81 0
-50 -21 -75 -24 -27 -54 0
-50 -21 -75 -24 -27 -81 0
-50 -21 -75 -24 -54 -81 0
-50 -21 -75 -78 -27 -54 0
-50 -21 -75 -78 -27 -81 0
-50 -21 -75 -78 -54 -81 0
-50 -21 -75 -27 -54 -81 0
-50 -21 -24 -78 -27 -54 0
-50 -21 -24 -78 -27 -81 0
-50 -21 -24 -78 -54 -81 0
-50 -21 -24 -27 -54 -81 0
-50 -21 -78 -27 -54 -81 0
-50 -48 -75 -24 -78 -27 0
-50 -48 -75 -24 -78 -54 0
-50 -48 -75 -24 -78 -81 0
-50 -48 -75 -24 -27 -54 0
-50 -48 -75 -24 -27 -81 0
-50 -48 -75 -24 -54 -81 0
-50 -48 -75 -78 -27 -54 0
-50 -48 -75 -78 -27 -81 0
-50 -48 -75 -78 -54 -81 0
-50 -48 -75 -27 -54 -81 0
-50 -48 -24 -78 -27 -54 0
-50 -48 -24 -78 -27 -81 0
-50 -48 -24 -78 -54 -81 0
-50 -48 -24 -27 -54 -81 0
-50 -48 -78 -27 -54 -81 0
-50 -75 -24 -78 -27 -54 0
-50 -75 -24 -78 -27 -81 0
-50 -75 -24 -78 -54 -81 0
-50 -75 -24 -27 -54 -81 0
-50 -75 -78 -27 -54 -81 0
-50 -24 -78 -27 -54 -81 0
-50 21 48 75 24 78 0
-50 21 48 75 24 27 0
-50 21 48 75 24 54 0
-50 21 48 75 24 81 0
-50 21 48 75 78 27 0
-50 21 48 75 78 54 0
-50 21 48 75 78 81 0
-50 21 48 75 27 54 0
-50 21 48 75 27 81 0
-50 21 48 75 54 81 0
-50 21 48 24 78 27 0
-50 21 48 24 78 54 0
-50 21 48 24 78 81 0
-50 21 48 24 27 54 0
-50 21 48 24 27 81 0
-50 21 48 24 54 81 0
-50 21 48 78 27 54 0
-50 21 48 78 27 81 0
-50 21 48 78 54 81 0
-50 21 48 27 54 81 0
-50 21 75 24 78 27 0
-50 21 75 24 78 54 0
-50 21 75 24 78 81 0
-50 21 75 24 27 54 0
-50 21 75 24 27 81 0
-50 21 75 24 54 81 0
-50 21 75 78 27 54 0
-50 21 75 78 27 81 0
-50 21 75 78 54 81 0
-50 21 75 27 54 81 0
-50 21 24 78 27 54 0
-50 21 24 78 27 81 0
-50 21 24 78 54 81 0
-50 21 24 27 54 81 0
-50 21 78 27 54 81 0
-50 48 75 24 78 27 0
-50 48 75 24 78 54 0
-50 48 75 24 78 81 0
-50 48 75 24 27 54 0
-50 48 75 24 27 81 0
-50 48 75 24 54 81 0
-50 48 75 78 27 54 0
-50 48 75 78 27 81 0
-50 48 75 78 54 81 0
-50 48 75 27 54 81 0
-50 48 24 78 27 54 0
-50 48 24 78 27 81 0
-50 48 24 78 54 81 0
-50 48 24 27 54 81 0
-50 48 78 27 54 81 0
-50 75 24 78 27 54 0
-50 75 24 78 27 81 0
-50 75 24 78 54 81 0
-50 75 24 27 54 81 0
-50 75 78 27 54 81 0
-50 24 78 27 54 81 0
-51 -19 -46 -73 -22 -76 -25 0
-51 -19 -46 -73 -22 -76 -52 0
-51 -19 -46 -73 -22 -76 -79 0
-51 -19 -46 -73 -22 -25 -52 0
-51 -19 -46 -73 -22 -25 -79 0
-51 -19 -46 -73 -22 -52 -79 0
-51 -19 -46 -73 -76 -25 -52 0
-51 -19 -46 -73 -76 -25 -79 0
-51 -19 -46 -73 -76 -52 -79 0
-51 -19 -46 -73 -25 -52 -79 0
-51 -19 -46 -22 -76 -25 -52 0
-51 -19 -46 -22 -76 -25 -79 0
-51 -19 -46 -22 -76 -52 -79 0
-51 -19 -46 -22 -25 -52 -79 0
-51 -19 -46 -76 -25 -52 -79 0
-51 -19 -73 -22 -76 -25 -52 0
-51 -19 -73 -22 -76 -25 -79 0
-51 -19 -73 -22 -76 -52 -79 0
-51 -19 -73 -22 -25 -52 -79 0
-51 -19 -73 -76 -25 -52 -79 0
-51 -19 -22 -76 -25 -52 -79 0
-51 -46 -73 -22 -76 -25 -52 0
-51 -46 -73 -22 -76 -25 -79 0
-51 -46 -73 -22 -76 -52 -79 0
-51 -46 -73 -22 -25 -52 -79 0
-51 -46 -73 -76 -25 -52 -79 0
-51 -46 -22 -76 -25 -52 -79 0
-51 -73 -22 -76 -25 -52 -79 0
-51 19 46 73 22 0
-51 19 46 73 76 0
-51 19 46 73 25 0
-51 19 46 73 52 0
-51 19 46 73 79 0
-51 19 46 22 76 0
-51 19 46 22 25 0
-51 19 46 22 52 0
-51 19 46 22 79 0
-51 19 46 76 25 0
-51 19 46 76 52 0
-51 19 46 76 79 0
-51 19 46 25 52 0
-51 19 46 25 79 0
-51 19 46 52 79 0
-51 19 73 22 76 0
-51 19 73 22 25 0
-51 19 73 22 52 0
-51 19 73 22 79 0
-51 19 73 76 25 0
-51 19 73 76 52 0
-51 19 73 76 79 0
-51 19 73 25 52 0
-51 19 73 25 79 0
-51 19 73 52 79 0
-51 19 22 76 25 0
-51 19 22 76 52 0
-51 19 22 76 79 0
-51 19 22 25 52 0
-51 19 22 25 79 0
-51 19 22 52 79 0
-51 19 76 25 52 0
-51 19 76 25 79 0
-51 19 76 52 79 0
-51 19 25 52 79 0
-51 46 73 22 76 0
-51 46 73 22 25 0
-51 46 73 22 52 0
-51 46 73 22 79 0
-51 46 73 76 25 0
-51 46 73 76 52 0
-51 46 73 76 79 0
-51 46 73 25 52 0
-51 46 73 25 79 0
-51 46 73 52 79 0
-51 46 22 76 25 0
-51 46 22 76 52 0
-51 46 22 76 79 0
-51 46 22 25 52 0
-51 46 22 25 79 0
-51 46 22 52 79 0
-51 46 76 25 52 0
-51 46 76 25 79 0
-51 46 76 52 79 0
-51 46 25 52 79 0
-51 73 22 76 25 0
-51 73 22 76 52 0
-51 73 22 76 79 0
-51 73 22 25 52 0
-51 73 22 25 79 0
-51 73 22 52 79 0
-51 73 76 25 52 0
-51 73 76 25 79 0
-51 73 76 52 79 0
-51 73 25 52 79 0
-51 22 76 25 52 0
-51 22 76 25 79 0
-51 22 76 52 79 0
-51 22 25 52 79 0
-51 76 25 52 79 0
-52 -53 0
-52 -54 0
-53 -54 0
-55 -56 0
-55 -57 0
-56 -57 0
-58 -59 0
-58 -60 0
-59 -60 0
-58 -29 -56 0
-58 -29 -83 0
-58 -29 -32 0
-58 -29 -86 0
-58 -29 -35 0
-58 -29 -62 0
-58 -29 -89 0
-58 -56 -83 0
-58 -56 -32 0
-58 -56 -86 0
-58 -56 -35 0
-58 -56 -62 0
-58 -56 -89 0
-58 -83 -32 0
-58 -83 -86 0
-58 -83 -35 0
-58 -83 -62 0
-58 -83 -89 0
-58 -32 -86 0
-58 -32 -35 0
-58 -32 -62 0
-58 -32 -89 0
-58 -86 -35 0
-58 -86 -62 0
-58 -86 -89 0
-58 -35 -62 0
-58 -35 -89 0
-58 -62 -89 0
-58 29 56 83 32 86 35 62 89 0
-59 -30 -57 -84 -33 -87 0
-59 -30 -57 -84 -33 -36 0
-59 -30 -57 -84 -33 -63 0
-59 -30 -57 -84 -33 -90 0
-59 -30 -57 -84 -87 -36 0
-59 -30 -57 -84 -87 -63 0
-59 -30 -57 -84 -87 -90 0
-59 -30 -57 -84 -36 -63 0
-59 -30 -57 -84 -36 -90 0
-59 -30 -57 -84 -63 -90 0
-59 -30 -57 -33 -87 -36 0
-59 -30 -57 -33 -87 -63 0
-59 -30 -57 -33 -87 -90 0
-59 -30 -57 -33 -36 -63 0
-59 -30 -57 -33 -36 -90 0
-59 -30 -57 -33 -63 -90 0
-59 -30 -57 -87 -36 -63 0
-59 -30 -57 -87 -36 -90 0
-59 -30 -57 -87 -63 -90 0
-59 -30 -57 -36 -63 -90 0
-59 -30 -84 -33 -87 -36 0
-59 -30 -84 -33 -87 -63 0
-59 -30 -84 -33 -87 -90 0
-59 -30 -84 -33 -36 -63 0
-59 -30 -84 -33 -36 -90 0
-59 -30 -84 -33 -63 -90 0
-59 -30 -84 -87 -36 -63 0
-59 -30 -84 -87 -36 -90 0
-59 -30 -84 -87 -63 -90 0
-59 -30 -84 -36 -63 -90 0
-59 -30 -33 -87 -36 -63 0
-59 -30 -33 -87 -36 -90 0
-59 -30 -33 -87 -63 -90 0
-59 -30 -33 -36 -63 -90 0
-59 -30 -87 -36 -63 -90 0
-59 -57 -84 -33 -87 -36 0
-59 -57 -84 -33 -87 -63 0
-59 -57 -84 -33 -87 -90 0
-59 -57 -84 -33 -36 -63 0
-59 -57 -84 -33 -36 -90 0
-59 -57 -84 -33 -63 -90 0
-59 -57 -84 -87 -36 -63 0
-59 -57 -84 -87 -36 -90 0
-59 -57 -84 -87 -63 -90 0
-59 -57 -84 -36 -63 -90 0
-59 -57 -33 -87 -36 -63 0
-59 -57 -33 -87 -36 -90 0
-59 -57 -33 -87 -63 -90 0
-59 -57 -33 -36 -63 -90 0
-59 -57 -87 -36 -63 -90 0
-59 -84 -33 -87 -36 -63 0
-59 -84 -33 -87 -36 -90 0
-59 -84 -33 -87 -63 -90 0
-59 -84 -33 -36 -63 -90 0
-59 -84 -87 -36 -63 -90 0
-59 -33 -87 -36 -63 -90 0
-59 30 57 84 33 87 0
-59 30 57 84 33 36 0
-59 30 57 84 33 63 0
-59 30 57 84 33 90 0
-59 30 57 84 87 36 0
-59 30 57 84 87 63 0
-59 30 57 84 87 90 0
-59 30 57 84 36 63 0
-59 30 57 84 36 90 0
-59 30 57 84 63 90 0
-59 30 57 33 87 36 0
-59 30 57 33 87 63 0
-59 30 57 33 87 90 0
-59 30 57 33 36 63 0
-59 30 57 33 36 90 0
-59 30 57 33 63 90 0
-59 30 57 87 36 63 0
-59 30 57 87 36 90 0
-59 30 57 87 63 90 0
-59 30 57 36 63 90 0
-59 30 84 33 87 36 0
-59 30 84 33 87 63 0
-59 30 84 33 87 90 0
-59 30 84 33 36 63 0
-59 30 84 33 36 90 0
-59 30 84 33 63 90 0
-59 30 84 87 36 63 0
-59 30 84 87 36 90 0
-59 30 84 87 63 90 0
-59 30 84 36 63 90 0
-59 30 33 87 36 63 0
-59 30 33 87 36 90 0
-59 30 33 87 63 90 0
-59 30 33 36 63 90 0
-59 30 87 36 63 90 0
-59 57 84 33 87 36 0
-59 57 84 33 87 63 0
-59 57 84 33 87 90 0
-59 57 84 33 36 63 0
-59 57 84 33 36 90 0
-59 57 84 33 63 90 0
-59 57 84 87 36 63 0
-59 57 84 87 36 90 0
-59 57 84 87 63 90 0
-59 57 84 36 63 90 0
-59 57 33 87 36 63 0
-59 57 33 87 36 90 0
-59 57 33 87 63 90 0
-59 57 33 36 63 90 0
-59 57 87 36 63 90 0
-59 84 33 87 36 63 0
-59 84 33 87 36 90 0
-59 84 33 87 63 90 0
-59 84 33 36 63 90 0
-59 84 87 36 63 90 0
-59 33 87 36 63 90 0
-60 -28 -55 -82 -31 -85 -34 0
-60 -28 -55 -82 -31 -85 -61 0
-60 -28 -55 -82 -31 -85 -88 0
-60 -28 -55 -82 -31 -34 -61 0
-60 -28 -55 -82 -31 -34 -88 0
-60 -28 -55 -82 -31 -61 -88 0
-60 -28 -55 -82 -85 -34 -61 0
-60 -28 -55 -82 -85 -34 -88 0
-60 -28 -55 -82 -85 -61 -88 0
-60 -28 -55 -82 -34 -61 -88 0
-60 -28 -55 -31 -85 -34 -61 0
-60 -28 -55 -31 -85 -34 -88 0
-60 -28 -55 -31 -85 -61 -88 0
-60 -28 -55 -31 -34 -61 -88 0
-60 -28 -55 -85 -34 -61 -88 0
-60 -28 -82 -31 -85 -34 -61 0
-60 -28 -82 -31 -85 -34 -88 0
-60 -28 -82 -31 -85 -61 -88 0
-60 -28 -82 -31 -34 -61 -88 0
-60 -28 -82 -85 -34 -61 -88 0
-60 -28 -31 -85 -34 -61 -88 0
-60 -55 -82 -31 -85 -34 -61 0
-60 -55 -82 -31 -85 -34 -88 0
-60 -55 -82 -31 -85 -61 -88 0
-60 -55 -82 -31 -34 -61 -88 0
-60 -55 -82 -85 -34 -61 -88 0
-60 -55 -31 -85 -34 -61 -88 0
-60 -82 -31 -85 -34 -61 -88 0
-60 28 55 82 31 0
-60 28 55 82 85 0
-60 28 55 82 34 0
-60 28 55 82 61 0
-60 28 55 82 88 0
-60 28 55 31 85 0
-60 28 55 31 34 0
-60 28 55 31 61 0
-60 28 55 31 88 0
-60 28 55 85 34 0
-60 28 55 85 61 0
-60 28 55 85 88 0
-60 28 55 34 61 0
-60 28 55 34 88 0
-60 28 55 61 88 0
-60 28 82 31 85 0
-60 28 82 31 34 0
-60 28 82 31 61 0
-60 28 82 31 88 0
-60 28 82 85 34 0
-60 28 82 85 61 0
-60 28 82 85 88 0
-60 28 82 34 61 0
-60 28 82 34 88 0
-60 28 82 61 88 0
-60 28 31 85 34 0
-60 28 31 85 61 0
-60 28 31 85 88 0
-60 28 31 34 61 0
-60 28 31 34 88 0
-60 28 31 61 88 0
-60 28 85 34 61 0
-60 28 85 34 88 0
-60 28 85 61 88 0
-60 28 34 61 88 0
-60 55 82 31 85 0
-60 55 82 31 34 0
-60 55 82 31 61 0
-60 55 82 31 88 0
-60 55 82 85 34 0
-60 55 82 85 61 0
-60 55 82 85 88 0
-60 55 82 34 61 0
-60 55 82 34 88 0
-60 55 82 61 88 0
-60 55 31 85 34 0
-60 55 31 85 61 0
-60 55 31 85 88 0
-60 55 31 34 61 0
-60 55 31 34 88 0
-60 55 31 61 88 0
-60 55 85 34 61 0
-60 55 85 34 88 0
-60 55 85 61 88 0
-60 55 34 61 88 0
-60 82 31 85 34 0
-60 82 31 85 61 0
-60 82 31 85 88 0
-60 82 31 34 61 0
-60 82 31 34 88 0
-60 82 31 61 88 0
-60 82 85 34 61 0
-60 82 85 34 88 0
-60 82 85 61 88 0
-60 82 34 61 88 0
-60 31 85 34 61 0
-60 31 85 34 88 0
-60 31 85 61 88 0
-60 31 34 61 88 0
-60 85 34 61 88 0
-61 -62 0
-61 -63 0
-62 -63 0
-61 -32 -59 0
-61 -32 -86 0
-61 -32 -35 0
-61 -32 -89 0
-61 -32 -38 0
-61 -32 -65 0
-61 -32 -92 0
-61 -59 -86 0
-61 -59 -35 0
-61 -59 -89 0
-61 -59 -38 0
-61 -59 -65 0
-61 -59 -92 0
-61 -86 -35 0
-61 -86 -89 0
-61 -86 -38 0
-61 -86 -65 0
-61 -86 -92 0
-61 -35 -89 0
-61 -35 -38 0
-61 -35 -65 0
-61 -35 -92 0
-61 -89 -38 0
-61 -89 -65 0
-61 -89 -92 0
-61 -38 -65 0
-61 -38 -92 0
-61 -65 -92 0
-61 32 59 86 35 89 38 65 92 0
-62 -33 -60 -87 -36 -90 0
-62 -33 -60 -87 -36 -39 0
-62 -33 -60 -87 -36 -66 0
-62 -33 -60 -87 -36 -93 0
-62 -33 -60 -87 -90 -39 0
-62 -33 -60 -87 -90 -66 0
-62 -33 -60 -87 -90 -93 0
-62 -33 -60 -87 -39 -66 0
-62 -33 -60 -87 -39 -93 0
-62 -33 -60 -87 -66 -93 0
-62 -33 -60 -36 -90 -39 0
-62 -33 -60 -36 -90 -66 0
-62 -33 -60 -36 -90 -93 0
-62 -33 -60 -36 -39 -66 0
-62 -33 -60 -36 -39 -93 0
-62 -33 -60 -36 -66 -93 0
-62 -33 -60 -90 -39 -66 0
-62 -33 -60 -90 -39 -93 0
-62 -33 -60 -90 -66 -93 0
-62 -33 -60 -39 -66 -93 0
-62 -33 -87 -36 -90 -39 0
-62 -33 -87 -36 -90 -66 0
-62 -33 -87 -36 -90 -93 0
-62 -33 -87 -36 -39 -66 0
-62 -33 -87 -36 -39 -93 0
-62 -33 -87 -36 -66 -93 0
-62 -33 -87 -90 -39 -66 0
-62 -33 -87 -90 -39 -93 0
-62 -33 -87 -90 -66 -93 0
-62 -33 -87 -39 -66 -93 0
-62 -33 -36 -90 -39 -66 0
-62 -33 -36 -90 -39 -93 0
-62 -33 -36 -90 -66 -93 0
-62 -33 -36 -39 -66 -93 0
-62 -33 -90 -39 -66 -93 0
-62 -60 -87 -36 -90 -39 0
-62 -60 -87 -36 -90 -66 0
-62 -60 -87 -36 -90 -93 0
-62 -60 -87 -36 -39 -66 0
-62 -60 -87 -36 -39 -93 0
-62 -60 -87 -36 -66 -93 0
-62 -60 -87 -90 -39 -66 0
-62 -60 -87 -90 -39 -93 0
-62 -60 -87 -90 -66 -93 0
-62 -60 -87 -39 -66 -93 0
-62 -60 -36 -90 -39 -66 0
-62 -60 -36 -90 -39 -93 0
-62 -60 -36 -90 -66 -93 0
-62 -60 -36 -39 -66 -93 0
-62 -60 -90 -39 -66 -93 0
-62 -87 -36 -90 -39 -66 0
-62 -87 -36 -90 -39 -93 0
-62 -87 -36 -90 -66 -93 0
-62 -87 -36 -39 -66 -93 0
-62 -87 -90 -39 -66 -93 0
-62 -36 -90 -39 -66 -93 0
-62 33 60 87 36 90 0
-62 33 60 87 36 39 0
-62 33 60 87 36 66 0
-62 33 60 87 36 93 0
-62 33 60 87 90 39 0
-62 33 60 87 90 66 0
-62 33 60 87 90 93 0
-62 33 60 87 39 66 0
-62 33 60 87 39 93 0
-62 33 60 87 66 93 0
-62 33 60 36 90 39 0
-62 33 60 36 90 66 0
-62 33 60 36 90 93 0
-62 33 60 36 39 66 0
-62 33 60 36 39 93 0
-62 33 60 36 66 93 0
-62 33 60 90 39 66 0
-62 33 60 90 39 93 0
-62 33 60 90 66 93 0
-62 33 60 39 66 93 0
-62 33 87 36 90 39 0
-62 33 87 36 90 66 0
-62 33 87 36 90 93 0
-62 33 87 36 39 66 0
-62 33 87 36 39 93 0
-62 33 87 36 66 93 0
-62 33 87 90 39 66 0
-62 33 87 90 39 93 0
-62 33 87 90 66 93 0
-62 33 87 39 66 93 0
-62 33 36 90 39 66 0
-62 33 36 90 39 93 0
-62 33 36 90 66 93 0
-62 33 36 39 66 93 0
-62 33 90 39 66 93 0
-62 60 87 36 90 39 0
-62 60 87 36 90 66 0
-62 60 87 36 90 93 0
-62 60 87 36 39 66 0
-62 60 87 36 39 93 0
-62 60 87 36 66 93 0
-62 60 87 90 39 66 0
-62 60 87 90 39 93 0
-62 60 87 90 66 93 0
-62 60 87 39 66 93 0
-62 60 36 90 39 66 0
-62 60 36 90 39 93 0
-62 60 36 90 66 93 0
-62 60 36 39 66 93 0
-62 60 90 39 66 93 0
-62 87 36 90 39 66 0
-62 87 36 90 39 93 0
-62 87 36 90 66 93 0
-62 87 36 39 66 93 0
-62 87 90 39 66 93 0
-62 36 90 39 66 93 0
-63 -31 -58 -85 -34 -88 -37 0
-63 -31 -58 -85 -34 -88 -64 0
-63 -31 -58 -85 -34 -88 -91 0
-63 -31 -58 -85 -34 -37 -64 0
-63 -31 -58 -85 -34 -37 -91 0
-63 -31 -58 -85 -34 -64 -91 0
-63 -31 -58 -85 -88 -37 -64 0
-63 -31 -58 -85 -88 -37 -91 0
-63 -31 -58 -85 -88 -64 -91 0
-63 -31 -58 -85 -37 -64 -91 0
-63 -31 -58 -34 -88 -37 -64 0
-63 -31 -58 -34 -88 -37 -91 0
-63 -31 -58 -34 -88 -64 -91 0
-63 -31 -58 -34 -37 -64 -91 0
-63 -31 -58 -88 -37 -64 -91 0
-63 -31 -85 -34 -88 -37 -64 0
-63 -31 -85 -34 -88 -37 -91 0
-63 -31 -85 -34 -88 -64 -91 0
-63 -31 -85 -34 -37 -64 -91 0
-63 -31 -85 -88 -37 -64 -91 0
-63 -31 -34 -88 -37 -64 -91 0
-63 -58 -85 -34 -88 -37 -64 0
-63 -58 -85 -34 -88 -37 -91 0
-63 -58 -85 -34 -88 -64 -91 0
-63 -58 -85 -34 -37 -64 -91 0
-63 -58 -85 -88 -37 -64 -91 0
-63 -58 -34 -88 -37 -64 -91 0
-63 -85 -34 -88 -37 -64 -91 0
-63 31 58 85 34 0
-63 31 58 85 88 0
-63 31 58 85 37 0
-63 31 58 85 64 0
-63 31 58 85 91 0
-63 31 58 34 88 0
-63 31 58 34 37 0
-63 31 58 34 64 0
-63 31 58 34 91 0
-63 31 58 88 37 0
-63 31 58 88 64 0
-63 31 58 88 91 0
-63 31 58 37 64 0
-63 31 58 37 91 0
-63 31 58 64 91 0
-63 31 85 34 88 0
-63 31 85 34 37 0
-63 31 85 34 64 0
-63 31 85 34 91 0
-63 31 85 88 37 0
-63 31 85 88 64 0
-63 31 85 88 91 0
-63 31 85 37 64 0
-63 31 85 37 91 0
-63 31 85 64 91 0
-63 31 34 88 37 0
-63 31 34 88 64 0
-63 31 34 88 91 0
-63 31 34 37 64 0
-63 31 34 37 91 0
-63 31 34 64 91 0
-63 31 88 37 64 0
-63 31 88 37 91 0
-63 31 88 64 91 0
-63 31 37 64 91 0
-63 58 85 34 88 0
-63 58 85 34 37 0
-63 58 85 34 64 0
-63 58 85 34 91 0
-63 58 85 88 37 0
-63 58 85 88 64 0
-63 58 85 88 91 0
-63 58 85 37 64 0
-63 58 85 37 91 0
-63 58 85 64 91 0
-63 58 34 88 37 0
-63 58 34 88 64 0
-63 58 34 88 91 0
-63 58 34 37 64 0
-63 58 34 37 91 0
-63 58 34 64 91 0
-63 58 88 37 64 0
-63 58 88 37 91 0
-63 58 88 64 91 0
-63 58 37 64 91 0
-63 85 34 88 37 0
-63 85 34 88 64 0
-63 85 34 88 91 0
-63 85 34 37 64 0
-63 85 34 37 91 0
-63 85 34 64 91 0
-63 85 88 37 64 0
-63 85 88 37 91 0
-63 85 88 64 91 0
-63 85 37 64 91 0
-63 34 88 37 64 0
-63 34 88 37 91 0
-63 34 88 64 91 0
-63 34 37 64 91 0
-63 88 37 64 91 0
-64 -65 0
-64 -66 0
-65 -66 0
-64 -35 -62 0
-64 -35 -89 0
-64 -35 -38 0
-64 -35 -92 0
-64 -35 -41 0
-64 -35 -68 0
-64 -35 -95 0
-64 -62 -89 0
-64 -62 -38 0
-64 -62 -92 0
-64 -62 -41 0
-64 -62 -68 0
-64 -62 -95 0
-64 -89 -38 0
-64 -89 -92 0
-64 -89 -41 0
-64 -89 -68 0
-64 -89 -95 0
-64 -38 -92 0
-64 -38 -41 0
-64 -38 -68 0
-64 -38 -95 0
-64 -92 -41 0
-64 -92 -68 0
-64 -92 -95 0
-64 -41 -68 0
-64 -41 -95 0
-64 -68 -95 0
-64 35 62 89 38 92 41 68 95 0
-65 -36 -63 -90 -39 -93 0
-65 -36 -63 -90 -39 -42 0
-65 -36 -63 -90 -39 -69 0
-65 -36 -63 -90 -39 -96 0
-65 -36 -63 -90 -93 -42 0
-65 -36 -63 -90 -93 -69 0
-65 -36 -63 -90 -93 -96 0
-65 -36 -63 -90 -42 -69 0
-65 -36 -63 -90 -42 -96 0
-65 -36 -63 -90 -69 -96 0
-65 -36 -63 -39 -93 -42 0
-65 -36 -63 -39 -93 -69 0
-65 -36 -63 -39 -93 -96 0
-65 -36 -63 -39 -42 -69 0
-65 -36 -63 -39 -42 -96 0
-65 -36 -63 -39 -69 -96 0
-65 -36 -63 -93 -42 -69 0
-65 -36 -63 -93 -42 -96 0
-65 -36 -63 -93 -69 -96 0
-65 -36 -63 -42 -69 -96 0
-65 -36 -90 -39 -93 -42 0
-65 -36 -90 -39 -93 -69 0
-65 -36 -90 -39 -93 -96 0
-65 -36 -90 -39 -42 -69 0
-65 -36 -90 -39 -42 -96 0
-65 -36 -90 -39 -69 -96 0
-65 -36 -90 -93 -42 -69 0
-65 -36 -90 -93 -42 -96 0
-65 -36 -90 -93 -69 -96 0
-65 -36 -90 -42 -69 -96 0
-65 -36 -39 -93 -42 -69 0
-65 -36 -39 -93 -42 -96 0
-65 -36 -39 -93 -69 -96 0
-65 -36 -39 -42 -69 -96 0
-65 -36 -93 -42 -69 -96 0
-65 -63 -90 -39 -93 -42 0
-65 -63 -90 -39 -93 -69 0
-65 -63 -90 -39 -93 -96 0
-65 -63 -90 -39 -42 -69 0
-65 -63 -90 -39 -42 -96 0
-65 -63 -90 -39 -69 -96 0
-65 -63 -90 -93 -42 -69 0
-65 -63 -90 -93 -42 -96 0
-65 -63 -90 -93 -69 -96 0
-65 -63 -90 -42 -69 -96 0
-65 -63 -39 -93 -42 -69 0
-65 -63 -39 -93 -42 -96 0
-65 -63 -39 -93 -69 -96 0
-65 -63 -39 -42 -69 -96 0
-65 -63 -93 -42 -69 -96 0
-65 -90 -39 -93 -42 -69 0
-65 -90 -39 -93 -42 -96 0
-65 -90 -39 -93 -69 -96 0
-65 -90 -39 -42 -69 -96 0
-65 -90 -93 -42 -69 -96 0
-65 -39 -93 -42 -69 -96 0
-65 36 63 90 39 93 0
-65 36 63 90 39 42 0
-65 36 63 90 39 69 0
-65 36 63 90 39 96 0
-65 36 63 90 93 42 0
-65 36 63 90 93 69 0
-65 36 63 90 93 96 0
-65 36 63 90 42 69 0
-65 36 63 90 42 96 0
-65 36 63 90 69 96 0
-65 36 63 39 93 42 0
-65 36 63 39 93 69 0
-65 36 63 39 93 96 0
-65 36 63 39 42 69 0
-65 36 63 39 42 96 0
-65 36 63 39 69 96 0
-65 36 63 93 42 69 0
-65 36 63 93 42 96 0
-65 36 63 93 69 96 0
-65 36 63 42 69 96 0
-65 36 90 39 93 42 0
-65 36 90 39 93 69 0
-65 36 90 39 93 96 0
-65 36 90 39 42 69 0
-65 36 90 39 42 96 0
-65 36 90 39 69 96 0
-65 36 90 93 42 69 0
-65 36 90 93 42 96 0
-65 36 90 93 69 96 0
-65 36 90 42 69 96 0
-65 36 39 93 42 69 0
-65 36 39 93 42 96 0
-65 36 39 93 69 96 0
-65 36 39 42 69 96 0
-65 36 93 42 69 96 0
-65 63 90 39 93 42 0
-65 63 90 39 93 69 0
-65 63 90 39 93 96 0
-65 63 90 39 42 69 0
-65 63 90 39 42 96 0
-65 63 90 39 69 96 0
-65 63 90 93 42 69 0
-65 63 90 93 42 96 0
-65 63 90 93 69 96 0
-65 63 90 42 69 96 0
-65 63 39 93 42 69 0
-65 63 39 93 42 96 0
-65 63 39 93 69 96 0
-65 63 39 42 69 96 0
-65 63 93 42 69 96 0
-65 90 39 93 42 69 0
-65 90 39 93 42 96 0
-65 90 39 93 69 96 0
-65 90 39 42 69 96 0
-65 90 93 42 69 96 0
-65 39 93 42 69 96 0
-66 -34 -61 -88 -37 -91 -40 0
-66 -34 -61 -88 -37 -91 -67 0
-66 -34 -61 -88 -37 -91 -94 0
-66 -34 -61 -88 -37 -40 -67 0
-66 -34 -61 -88 -37 -40 -94 0
-66 -34 -61 -88 -37 -67 -94 0
-66 -34 -61 -88 -91 -40 -67 0
-66 -34 -61 -88 -91 -40 -94 0
-66 -34 -61 -88 -91 -67 -94 0
-66 -34 -61 -88 -40 -67 -94 0
-66 -34 -61 -37 -91 -40 -67 0
-66 -34 -61 -37 -91 -40 -94 0
-66 -34 -61 -37 -91 -67 -94 0
-66 -34 -61 -37 -40 -67 -94 0
-66 -34 -61 -91 -40 -67 -94 0
-66 -34 -88 -37 -91 -40 -67 0
-66 -34 -88 -37 -91 -40 -94 0
-66 -34 -88 -37 -91 -67 -94 0
-66 -34 -88 -37 -40 -67 -94 0
-66 -34 -88 -91 -40 -67 -94 0
-66 -34 -37 -91 -40 -67 -94 0
-66 -61 -88 -37 -91 -40 -67 0
-66 -61 -88 -37 -91 -40 -94 0
-66 -61 -88 -37 -91 -67 -94 0
-66 -61 -88 -37 -40 -67 -94 0
-66 -61 -88 -91 -40 -67 -94 0
-66 -61 -37 -91 -40 -67 -94 0
-66 -88 -37 -91 -40 -67 -94 0
-66 34 61 88 37 0
-66 34 61 88 91 0
-66 34 61 88 40 0
-66 34 61 88 67 0
-66 34 61 88 94 0
-66 34 61 37 91 0
-66 34 61 37 40 0
-66 34 61 37 67 0
-66 34 61 37 94 0
-66 34 61 91 40 0
-66 34 61 91 67 0
-66 34 61 91 94 0
-66 34 61 40 67 0
-66 34 61 40 94 0
-66 34 61 67 94 0
-66 34 88 37 91 0
-66 34 88 37 40 0
-66 34 88 37 67 0
-66 34 88 37 94 0
-66 34 88 91 40 0
-66 34 88 91 67 0
-66 34 88 91 94 0
-66 34 88 40 67 0
-66 34 88 40 94 0
-66 34 88 67 94 0
-66 34 37 91 40 0
-66 34 37 91 67 0
-66 34 37 91 94 0
-66 34 37 40 67 0
-66 34 37 40 94 0
-66 34 37 67 94 0
-66 34 91 40 67 0
-66 34 91 40 94 0
-66 34 91 67 94 0
-66 34 40 67 94 0
-66 61 88 37 91 0
-66 61 88 37 40 0
-66 61 88 37 67 0
-66 61 88 37 94 0
-66 61 88 91 40 0
-66 61 88 91 67 0
-66 61 88 91 94 0
-66 61 88 40 67 0
-66 61 88 40 94 0
-66 61 88 67 94 0
-66 61 37 91 40 0
-66 61 37 91 67 0
-66 61 37 91 94 0
-66 61 37 40 67 0
-66 61 37 40 94 0
-66 61 37 67 94 0
-66 61 91 40 67 0
-66 61 91 40 94 0
-66 61 91 67 94 0
-66 61 40 67 94 0
-66 88 37 91 40 0
-66 88 37 91 67 0
-66 88 37 91 94 0
-66 88 37 40 67 0
-66 88 37 40 94 0
-66 88 37 67 94 0
-66 88 91 40 67 0
-66 88 91 40 94 0
-66 88 91 67 94 0
-66 88 40 67 94 0
-66 37 91 40 67 0
-66 37 91 40 94 0
-66 37 91 67 94 0
-66 37 40 67 94 0
-66 91 40 67 94 0
-67 -68 0
-67 -69 0
-68 -69 0
-67 -38 -65 0
-67 -38 -92 0
-67 -38 -41 0
-67 -38 -95 0
-67 -38 -44 0
-67 -38 -71 0
-67 -38 -98 0
-67 -65 -92 0
-67 -65 -41 0
-67 -65 -95 0
-67 -65 -44 0
-67 -65 -71 0
-67 -65 -98 0
-67 -92 -41 0
-67 -92 -95 0
-67 -92 -44 0
-67 -92 -71 0
-67 -92 -98 0
-67 -41 -95 0
-67 -41 -44 0
-67 -41 -71 0
-67 -41 -98 0
-67 -95 -44 0
-67 -95 -71 0
-67 -95 -98 0
-67 -44 -71 0
-67 -44 -98 0
-67 -71 -98 0
-67 38 65 92 41 95 44 71 98 0
-68 -39 -66 -93 -42 -96 0
-68 -39 -66 -93 -42 -45 0
-68 -39 -66 -93 -42 -72 0
-68 -39 -66 -93 -42 -99 0
-68 -39 -66 -93 -96 -45 0
-68 -39 -66 -93 -96 -72 0
-68 -39 -66 -93 -96 -99 0
-68 -39 -66 -93 -45 -72 0
-68 -39 -66 -93 -45 -99 0
-68 -39 -66 -93 -72 -99 0
-68 -39 -66 -42 -96 -45 0
-68 -39 -66 -42 -96 -72 0
-68 -39 -66 -42 -96 -99 0
-68 -39 -66 -42 -45 -72 0
-68 -39 -66 -42 -45 -99 0
-68 -39 -66 -42 -72 -99 0
-68 -39 -66 -96 -45 -72 0
-68 -39 -66 -96 -45 -99 0
-68 -39 -66 -96 -72 -99 0
-68 -39 -66 -45 -72 -99 0
-68 -39 -93 -42 -96 -45 0
-68 -39 -93 -42 -96 -72 0
-68 -39 -93 -42 -96 -99 0
-68 -39 -93 -42 -45 -72 0
-68 -39 -93 -42 -45 -99 0
-68 -39 -93 -42 -72 -99 0
-68 -39 -93 -96 -45 -72 0
-68 -39 -93 -96 -45 -99 0
-68 -39 -93 -96 -72 -99 0
-68 -39 -93 -45 -72 -99 0
-68 -39 -42 -96 -45 -72 0
-68 -39 -42 -96 -45 -99 0
-68 -39 -42 -96 -72 -99 0
-68 -39 -42 -45 -72 -99 0
-68 -39 -96 -45 -72 -99 0
-68 -66 -93 -42 -96 -45 0
-68 -66 -93 -42 -96 -72 0
-68 -66 -93 -42 -96 -99 0
-68 -66 -93 -42 -45 -72 0
-68 -66 -93 -42 -45 -99 0
-68 -66 -93 -42 -72 -99 0
-68 -66 -93 -96 -45 -72 0
-68 -66 -93 -96 -45 -99 0
-68 -66 -93 -96 -72 -99 0
-68 -66 -93 -45 -72 -99 0
-68 -66 -42 -96 -45 -72 0
-68 -66 -42 -96 -45 -99 0
-68 -66 -42 -96 -72 -99 0
-68 -66 -42 -45 -72 -99 0
-68 -66 -96 -45 -72 -99 0
-68 -93 -42 -96 -45 -72 0
-68 -93 -42 -96 -45 -99 0
-68 -93 -42 -96 -72 -99 0
-68 -93 -42 -45 -72 -99 0
-68 -93 -96 -45 -72 -99 0
-68 -42 -96 -45 -72 -99 0
-68 39 66 93 42 96 0
-68 39 66 93 42 45 0
-68 39 66 93 42 72 0
-68 39 66 93 42 99 0
-68 39 66 93 96 45 0
-68 39 66 93 96 72 0
-68 39 66 93 96 99 0
-68 39 66 93 45 72 0
-68 39 66 93 45 99 0
-68 39 66 93 72 99 0
-68 39 66 42 96 45 0
-68 39 66 42 96 72 0
-68 39 66 42 96 99 0
-68 39 66 42 45 72 0
-68 39 66 42 45 99 0
-68 39 66 42 72 99 0
-68 39 66 96 45 72 0
-68 39 66 96 45 99 0
-68 39 66 96 72 99 0
-68 39 66 45 72 99 0
-68 39 93 42 96 45 0
-68 39 93 42 96 72 0
-68 39 93 42 96 99 0
-68 39 93 42 45 72 0
-68 39 93 42 45 99 0
-68 39 93 42 72 99 0
-68 39 93 96 45 72 0
-68 39 93 96 45 99 0
-68 39 93 96 72 99 0
-68 39 93 45 72 99 0
-68 39 42 96 45 72 0
-68 39 42 96 45 99 0
-68 39 42 96 72 99 0
-68 39 42 45 72 99 0
-68 39 96 45 72 99 0
-68 66 93 42 96 45 0
-68 66 93 42 96 72 0
-68 66 93 42 96 99 0
-68 66 93 42 45 72 0
-68 66 93 42 45 99 0
-68 66 93 42 72 99 0
-68 66 93 96 45 72 0
-68 66 93 96 45 99 0
-68 66 93 96 72 99 0
-68 66 93 45 72 99 0
-68 66 42 96 45 72 0
-68 66 42 96 45 99 0
-68 66 42 96 72 99 0
-68 66 42 45 72 99 0
-68 66 96 45 72 99 0
-68 93 42 96 45 72 0
-68 93 42 96 45 99 0
-68 93 42 96 72 99 0
-68 93 42 45 72 99 0
-68 93 96 45 72 99 0
-68 42 96 45 72 99 0
-69 -37 -64 -91 -40 -94 -43 0
-69 -37 -64 -91 -40 -94 -70 0
-69 -37 -64 -91 -40 -94 -97 0
-69 -37 -64 -91 -40 -43 -70 0
-69 -37 -64 -91 -40 -43 -97 0
-69 -37 -64 -91 -40 -70 -97 0
-69 -37 -64 -91 -94 -43 -70 0
-69 -37 -64 -91 -94 -43 -97 0
-69 -37 -64 -91 -94 -70 -97 0
-69 -37 -64 -91 -43 -70 -97 0
-69 -37 -64 -40 -94 -43 -70 0
-69 -37 -64 -40 -94 -43 -97 0
-69 -37 -64 -40 -94 -70 -97 0
-69 -37 -64 -40 -43 -70 -97 0
-69 -37 -64 -94 -43 -70 -97 0
-69 -37 -91 -40 -94 -43 -70 0
-69 -37 -91 -40 -94 -43 -97 0
-69 -37 -91 -40 -94 -70 -97 0
-69 -37 -91 -40 -43 -70 -97 0
-69 -37 -91 -94 -43 -70 -97 0
-69 -37 -40 -94 -43 -70 -97 0
-69 -64 -91 -40 -94 -43 -70 0
-69 -64 -91 -40 -94 -43 -97 0
-69 -64 -91 -40 -94 -70 -97 0
-69 -64 -91 -40 -43 -70 -97 0
-69 -64 -91 -94 -43 -70 -97 0
-69 -64 -40 -94 -43 -70 -97 0
-69 -91 -40 -94 -43 -70 -97 0
-69 37 64 91 40 0
-69 37 64 91 94 0
-69 37 64 91 43 0
-69 37 64 91 70 0
-69 37 64 91 97 0
-69 37 64 40 94 0
-69 37 64 40 43 0
-69 37 64 40 70 0
-69 37 64 40 97 0
-69 37 64 94 43 0
-69 37 64 94 70 0
-69 37 64 94 97 0
-69 37 64 43 70 0
-69 37 64 43 97 0
-69 37 64 70 97 0
-69 37 91 40 94 0
-69 37 91 40 43 0
-69 37 91 40 70 0
-69 37 91 40 97 0
-69 37 91 94 43 0
-69 37 91 94 70 0
-69 37 91 94 97 0
-69 37 91 43 70 0
-69 37 91 43 97 0
-69 37 91 70 97 0
-69 37 40 94 43 0
-69 37 40 94 70 0
-69 37 40 94 97 0
-69 37 40 43 70 0
-69 37 40 43 97 0
-69 37 40 70 97 0
-69 37 94 43 70 0
-69 37 94 43 97 0
-69 37 94 70 97 0
-69 37 43 70 97 0
-69 64 91 40 94 0
-69 64 91 40 43 0
-69 64 91 40 70 0
-69 64 91 40 97 0
-69 64 91 94 43 0
-69 64 91 94 70 0
-69 64 91 94 97 0
-69 64 91 43 70 0
-69 64 91 43 97 0
-69 64 91 70 97 0
-69 64 40 94 43 0
-69 64 40 94 70 0
-69 64 40 94 97 0
-69 64 40 43 70 0
-69 64 40 43 97 0
-69 64 40 70 97 0
-69 64 94 43 70 0
-69 64 94 43 97 0
-69 64 94 70 97 0
-69 64 43 70 97 0
-69 91 40 94 43 0
-69 91 40 94 70 0
-69 91 40 94 97 0
-69 91 40 43 70 0
-69 91 40 43 97 0
-69 91 40 70 97 0
-69 91 94 43 70 0
-69 91 94 43 97 0
-69 91 94 70 97 0
-69 91 43 70 97 0
-69 40 94 43 70 0
-69 40 94 43 97 0
-69 40 94 70 97 0
-69 40 43 70 97 0
-69 94 43 70 97 0
-70 -71 0
-70 -72 0
-71 -72 0
-70 -41 -68 0
-70 -41 -95 0
-70 -41 -44 0
-70 -41 -98 0
-70 -41 -47 0
-70 -41 -74 0
-70 -41 -101 0
-70 -68 -95 0
-70 -68 -44 0
-70 -68 -98 0
-70 -68 -47 0
-70 -68 -74 0
-70 -68 -101 0
-70 -95 -44 0
-70 -95 -98 0
-70 -95 -47 0
-70 -95 -74 0
-70 -95 -101 0
-70 -44 -98 0
-70 -44 -47 0
-70 -44 -74 0
-70 -44 -101 0
-70 -98 -47 0
-70 -98 -74 0
-70 -98 -101 0
-70 -47 -74 0
-70 -47 -101 0
-70 -74 -101 0
-70 41 68 95 44 98 47 74 101 0
-71 -42 -69 -96 -45 -99 0
-71 -42 -69 -96 -45 -48 0
-71 -42 -69 -96 -45 -75 0
-71 -42 -69 -96 -45 -102 0
-71 -42 -69 -96 -99 -48 0
-71 -42 -69 -96 -99 -75 0
-71 -42 -69 -96 -99 -102 0
-71 -42 -69 -96 -48 -75 0
-71 -42 -69 -96 -48 -102 0
-71 -42 -69 -96 -75 -102 0
-71 -42 -69 -45 -99 -48 0
-71 -42 -69 -45 -99 -75 0
-71 -42 -69 -45 -99 -102 0
-71 -42 -69 -45 -48 -75 0
-71 -42 -69 -45 -48 -102 0
-71 -42 -69 -45 -75 -102 0
-71 -42 -69 -99 -48 -75 0
-71 -42 -69 -99 -48 -102 0
-71 -42 -69 -99 -75 -102 0
-71 -42 -69 -48 -75 -102 0
-71 -42 -96 -45 -99 -48 0
-71 -42 -96 -45 -99 -75 0
-71 -42 -96 -45 -99 -102 0
-71 -42 -96 -45 -48 -75 0
-71 -42 -96 -45 -48 -102 0
-71 -42 -96 -45 -75 -102 0
-71 -42 -96 -99 -48 -75 0
-71 -42 -96 -99 -48 -102 0
-71 -42 -96 -99 -75 -102 0
-71 -42 -96 -48 -75 -102 0
-71 -42 -45 -99 -48 -75 0
-71 -42 -45 -99 -48 -102 0
-71 -42 -45 -99 -75 -102 0
-71 -42 -45 -48 -75 -102 0
-71 -42 -99 -48 -75 -102 0
-71 -69 -96 -45 -99 -48 0
-71 -69 -96 -45 -99 -75 0
-71 -69 -96 -45 -99 -102 0
-71 -69 -96 -45 -48 -75 0
-71 -69 -96 -45 -48 -102 0
-71 -69 -96 -45 -75 -102 0
-71 -69 -96 -99 -48 -75 0
-71 -69 -96 -99 -48 -102 0
-71 -69 -96 -99 -75 -102 0
-71 -69 -96 -48 -75 -102 0
-71 -69 -45 -99 -48 -75 0
-71 -69 -45 -99 -48 -102 0
-71 -69 -45 -99 -75 -102 0
-71 -69 -45 -48 -75 -102 0
-71 -69 -99 -48 -75 -102 0
-71 -96 -45 -99 -48 -75 0
-71 -96 -45 -99 -48 -102 0
-71 -96 -45 -99 -75 -102 0
-71 -96 -45 -48 -75 -102 0
-71 -96 -99 -48 -75 -102 0
-71 -45 -99 -48 -75 -102 0
-71 42 69 96 45 99 0
-71 42 69 96 45 48 0
-71 42 69 96 45 75 0
-71 42 69 96 45 102 0
-71 42 69 96 99 48 0
-71 42 69 96 99 75 0
-71 42 69 96 99 102 0
-71 42 69 96 48 75 0
-71 42 69 96 48 102 0
-71 42 69 96 75 102 0
-71 42 69 45 99 48 0
-71 42 69 45 99 75 0
-71 42 69 45 99 102 0
-71 42 69 45 48 75 0
-71 42 69 45 48 102 0
-71 42 69 45 75 102 0
-71 42 69 99 48 75 0
-71 42 69 99 48 102 0
-71 42 69 99 75 102 0
-71 42 69 48 75 102 0
-71 42 96 45 99 48 0
-71 42 96 45 99 75 0
-71 42 96 45 99 102 0
-71 42 96 45 48 75 0
-71 42 96 45 48 102 0
-71 42 96 45 75 102 0
-71 42 96 99 48 75 0
-71 42 96 99 48 102 0
-71 42 96 99 75 102 0
-71 42 96 48 75 102 0
-71 42 45 99 48 75 0
-71 42 45 99 48 102 0
-71 42 45 99 75 102 0
-71 42 45 48 75 102 0
-71 42 99 48 75 102 0
-71 69 96 45 99 48 0
-71 69 96 45 99 75 0
-71 69 96 45 99 102 0
-71 69 96 45 48 75 0
-71 69 96 45 48 102 0
-71 69 96 45 75 102 0
-71 69 96 99 48 75 0
-71 69 96 99 48 102 0
-71 69 96 99 75 102 0
-71 69 96 48 75 102 0
-71 69 45 99 48 75 0
-71 69 45 99 48 102 0
-71 69 45 99 75 102 0
-71 69 45 48 75 102 0
-71 69 99 48 75 102 0
-71 96 45 99 48 75 0
-71 96 45 99 48 102 0
-71 96 45 99 75 102 0
-71 96 45 48 75 102 0
-71 96 99 48 75 102 0
-71 45 99 48 75 102 0
-72 -40 -67 -94 -43 -97 -46 0
-72 -40 -67 -94 -43 -97 -73 0
-72 -40 -67 -94 -43 -97 -100 0
-72 -40 -67 -94 -43 -46 -73 0
-72 -40 -67 -94 -43 -46 -100 0
-72 -40 -67 -94 -43 -73 -100 0
-72 -40 -67 -94 -97 -46 -73 0
-72 -40 -67 -94 -97 -46 -100 0
-72 -40 -67 -94 -97 -73 -100 0
-72 -40 -67 -94 -46 -73 -100 0
-72 -40 -67 -43 -97 -46 -73 0
-72 -40 -67 -43 -97 -46 -100 0
-72 -40 -67 -43 -97 -73 -100 0
-72 -40 -67 -43 -46 -73 -100 0
-72 -40 -67 -97 -46 -73 -100 0
-72 -40 -94 -43 -97 -46 -73 0
-72 -40 -94 -43 -97 -46 -100 0
-72 -40 -94 -43 -97 -73 -100 0
-72 -40 -94 -43 -46 -73 -100 0
-72 -40 -94 -97 -46 -73 -100 0
-72 -40 -43 -97 -46 -73 -100 0
-72 -67 -94 -43 -97 -46 -73 0
-72 -67 -94 -43 -97 -46 -100 0
-72 -67 -94 -43 -97 -73 -100 0
-72 -67 -94 -43 -46 -73 -100 0
-72 -67 -94 -97 -46 -73 -100 0
-72 -67 -43 -97 -46 -73 -100 0
-72 -94 -43 -97 -46 -73 -100 0
-72 40 67 94 43 0
-72 40 67 94 97 0
-72 40 67 94 46 0
-72 40 67 94 73 0
-72 40 67 94 100 0
-72 40 67 43 97 0
-72 40 67 43 46 0
-72 40 67 43 73 0
-72 40 67 43 100 0
-72 40 67 97 46 0
-72 40 67 97 73 0
-72 40 67 97 100 0
-72 40 67 46 73 0
-72 40 67 46 100 0
-72 40 67 73 100 0
-72 40 94 43 97 0
-72 40 94 43 46 0
-72 40 94 43 73 0
-72 40 94 43 100 0
-72 40 94 97 46 0
-72 40 94 97 73 0
-72 40 94 97 100 0
-72 40 94 46 73 0
-72 40 94 46 100 0
-72 40 94 73 100 0
-72 40 43 97 46 0
-72 40 43 97 73 0
-72 40 43 97 100 0
-72 40 43 46 73 0
-72 40 43 46 100 0
-72 40 43 73 100 0
-72 40 97 46 73 0
-72 40 97 46 100 0
-72 40 97 73 100 0
-72 40 46 73 100 0
-72 67 94 43 97 0
-72 67 94 43 46 0
-72 67 94 43 73 0
-72 67 94 43 100 0
-72 67 94 97 46 0
-72 67 94 97 73 0
-72 67 94 97 100 0
-72 67 94 46 73 0
-72 67 94 46 100 0
-72 67 94 73 100 0
-72 67 43 97 46 0
-72 67 43 97 73 0
-72 67 43 97 100 0
-72 67 43 46 73 0
-72 67 43 46 100 0
-72 67 43 73 100 0
-72 67 97 46 73 0
-72 67 97 46 100 0
-72 67 97 73 100 0
-72 67 46 73 100 0
-72 94 43 97 46 0
-72 94 43 97 73 0
-72 94 43 97 100 0
-72 94 43 46 73 0
-72 94 43 46 100 0
-72 94 43 73 100 0
-72 94 97 46 73 0
-72 94 97 46 100 0
-72 94 97 73 100 0
-72 94 46 73 100 0
-72 43 97 46 73 0
-72 43 97 46 100 0
-72 43 97 73 100 0
-72 43 46 73 100 0
-72 97 46 73 100 0
-73 -74 0
-73 -75 0
-74 -75 0
-73 -44 -71 0
-73 -44 -98 0
-73 -44 -47 0
-73 -44 -101 0
-73 -44 -50 0
-73 -44 -77 0
-73 -44 -104 0
-73 -71 -98 0
-73 -71 -47 0
-73 -71 -101 0
-73 -71 -50 0
-73 -71 -77 0
-73 -71 -104 0
-73 -98 -47 0
-73 -98 -101 0
-73 -98 -50 0
-73 -98 -77 0
-73 -98 -104 0
-73 -47 -101 0
-73 -47 -50 0
-73 -47 -77 0
-73 -47 -104 0
-73 -101 -50 0
-73 -101 -77 0
-73 -101 -104 0
-73 -50 -77 0
-73 -50 -104 0
-73 -77 -104 0
-73 44 71 98 47 101 50 77 104 0
-74 -45 -72 -99 -48 -102 0
-74 -45 -72 -99 -48 -51 0
-74 -45 -72 -99 -48 -78 0
-74 -45 -72 -99 -48 -105 0
-74 -45 -72 -99 -102 -51 0
-74 -45 -72 -99 -102 -78 0
-74 -45 -72 -99 -102 -105 0
-74 -45 -72 -99 -51 -78 0
-74 -45 -72 -99 -51 -105 0
-74 -45 -72 -99 -78 -105 0
-74 -45 -72 -48 -102 -51 0
-74 -45 -72 -48 -102 -78 0
-74 -45 -72 -48 -102 -105 0
-74 -45 -72 -48 -51 -78 0
-74 -45 -72 -48 -51 -105 0
-74 -45 -72 -48 -78 -105 0
-74 -45 -72 -102 -51 -78 0
-74 -45 -72 -102 -51 -105 0
-74 -45 -72 -102 -78 -105 0
-74 -45 -72 -51 -78 -105 0
-74 -45 -99 -48 -102 -51 0
-74 -45 -99 -48 -102 -78 0
-74 -45 -99 -48 -102 -105 0
-74 -45 -99 -48 -51 -78 0
-74 -45 -99 -48 -51 -105 0
-74 -45 -99 -48 -78 -105 0
-74 -45 -99 -102 -51 -78 0
-74 -45 -99 -102 -51 -105 0
-74 -45 -99 -102 -78 -105 0
-74 -45 -99 -51 -78 -105 0
-74 -45 -48 -102 -51 -78 0
-74 -45 -48 -102 -51 -105 0
-74 -45 -48 -102 -78 -105 0
-74 -45 -48 -51 -78 -105 0
-74 -45 -102 -51 -78 -105 0
-74 -72 -99 -48 -102 -51 0
-74 -72 -99 -48 -102 -78 0
-74 -72 -99 -48 -102 -105 0
-74 -72 -99 -48 -51 -78 0
-74 -72 -99 -48 -51 -105 0
-74 -72 -99 -48 -78 -105 0
-74 -72 -99 -102 -51 -78 0
-74 -72 -99 -102 -51 -105 0
-74 -72 -99 -102 -78 -105 0
-74 -72 -99 -51 -78 -105 0
-74 -72 -48 -102 -51 -78 0
-74 -72 -48 -102 -51 -105 0
-74 -72 -48 -102 -78 -105 0
-74 -72 -48 -51 -78 -105 0
-74 -72 -102 -51 -78 -105 0
-74 -99 -48 -102 -51 -78 0
-74 -99 -48 -102 -51 -105 0
-74 -99 -48 -102 -78 -105 0
-74 -99 -48 -51 -78 -105 0
-74 -99 -102 -51 -78 -105 0
-74 -48 -102 -51 -78 -105 0
-74 45 72 99 48 102 0
-74 45 72 99 48 51 0
-74 45 72 99 48 78 0
-74 45 72 99 48 105 0
-74 45 72 99 102 51 0
-74 45 72 99 102 78 0
-74 45 72 99 102 105 0
-74 45 72 99 51 78 0
-74 45 72 99 51 105 0
-74 45 72 99 78 105 0
-74 45 72 48 102 51 0
-74 45 72 48 102 78 0
-74 45 72 48 102 105 0
-74 45 72 48 51 78 0
-74 45 72 48 51 105 0
-74 45 72 48 78 105 0
-74 45 72 102 51 78 0
-74 45 72 102 51 105 0
-74 45 72 102 78 105 0
-74 45 72 51 78 105 0
-74 45 99 48 102 51 0
-74 45 99 48 102 78 0
-74 45 99 48 102 105 0
-74 45 99 48 51 78 0
-74 45 99 48 51 105 0
-74 45 99 48 78 105 0
-74 45 99 102 51 78 0
-74 45 99 102 51 105 0
-74 45 99 102 78 105 0
-74 45 99 51 78 105 0
-74 45 48 102 51 78 0
-74 45 48 102 51 105 0
-74 45 48 102 78 105 0
-74 45 48 51 78 105 0
-74 45 102 51 78 105 0
-74 72 99 48 102 51 0
-74 72 99 48 102 78 0
-74 72 99 48 102 105 0
-74 72 99 48 51 78 0
-74 72 99 48 51 105 0
-74 72 99 48 78 105 0
-74 72 99 102 51 78 0
-74 72 99 102 51 105 0
-74 72 99 102 78 105 0
-74 72 99 51 78 105 0
-74 72 48 102 51 78 0
-74 72 48 102 51 105 0
-74 72 48 102 78 105 0
-74 72 48 51 78 105 0
-74 72 102 51 78 105 0
-74 99 48 102 51 78 0
-74 99 48 102 51 105 0
-74 99 48 102 78 105 0
-74 99 48 51 78 105 0
-74 99 102 51 78 105 0
-74 48 102 51 78 105 0
-75 -43 -70 -97 -46 -100 -49 0
-75 -43 -70 -97 -46 -100 -76 0
-75 -43 -70 -97 -46 -100 -103 0
-75 -43 -70 -97 -46 -49 -76 0
-75 -43 -70 -97 -46 -49 -103 0
-75 -43 -70 -97 -46 -76 -103 0
-75 -43 -70 -97 -100 -49 -76 0
-75 -43 -70 -97 -100 -49 -103 0
-75 -43 -70 -97 -100 -76 -103 0
-75 -43 -70 -97 -49 -76 -103 0
-75 -43 -70 -46 -100 -49 -76 0
-75 -43 -70 -46 -100 -49 -103 0
-75 -43 -70 -46 -100 -76 -103 0
-75 -43 -70 -46 -49 -76 -103 0
-75 -43 -70 -100 -49 -76 -103 0
-75 -43 -97 -46 -100 -49 -76 0
-75 -43 -97 -46 -100 -49 -103 0
-75 -43 -97 -46 -100 -76 -103 0
-75 -43 -97 -46 -49 -76 -103 0
-75 -43 -97 -100 -49 -76 -103 0
-75 -43 -46 -100 -49 -76 -103 0
-75 -70 -97 -46 -100 -49 -76 0
-75 -70 -97 -46 -100 -49 -103 0
-75 -70 -97 -46 -100 -76 -103 0
-75 -70 -97 -46 -49 -76 -103 0
-75 -70 -97 -100 -49 -76 -103 0
-75 -70 -46 -100 -49 -76 -103 0
-75 -97 -46 -100 -49 -76 -103 0
-75 43 70 97 46 0
-75 43 70 97 100 0
-75 43 70 97 49 0
-75 43 70 97 76 0
-75 43 70 97 103 0
-75 43 70 46 100 0
-75 43 70 46 49 0
-75 43 70 46 76 0
-75 43 70 46 103 0
-75 43 70 100 49 0
-75 43 70 100 76 0
-75 43 70 100 103 0
-75 43 70 49 76 0
-75 43 70 49 103 0
-75 43 70 76 103 0
-75 43 97 46 100 0
-75 43 97 46 49 0
-75 43 97 46 76 0
-75 43 97 46 103 0
-75 43 97 100 49 0
-75 43 97 100 76 0
-75 43 97 100 103 0
-75 43 97 49 76 0
-75 43 97 49 103 0
-75 43 97 76 103 0
-75 43 46 100 49 0
-75 43 46 100 76 0
-75 43 46 100 103 0
-75 43 46 49 76 0
-75 43 46 49 103 0
-75 43 46 76 103 0
-75 43 100 49 76 0
-75 43 100 49 103 0
-75 43 100 76 103 0
-75 43 49 76 103 0
-75 70 97 46 100 0
-75 70 97 46 49 0
-75 70 97 46 76 0
-75 70 97 46 103 0
-75 70 97 100 49 0
-75 70 97 100 76 0
-75 70 97 100 103 0
-75 70 97 49 76 0
-75 70 97 49 103 0
-75 70 97 76 103 0
-75 70 46 100 49 0
-75 70 46 100 76 0
-75 70 46 100 103 0
-75 70 46 49 76 0
-75 70 46 49 103 0
-75 70 46 76 103 0
-75 70 100 49 76 0
-75 70 100 49 103 0
-75 70 100 76 103 0
-75 70 49 76 103 0
-75 97 46 100 49 0
-75 97 46 100 76 0
-75 97 46 100 103 0
-75 97 46 49 76 0
-75 97 46 49 103 0
-75 97 46 76 103 0
-75 97 100 49 76 0
-75 97 100 49 103 0
-75 97 100 76 103 0
-75 97 49 76 103 0
-75 46 100 49 76 0
-75 46 100 49 103 0
-75 46 100 76 103 0
-75 46 49 76 103 0
-75 100 49 76 103 0
-76 -77 0
-76 -78 0
-77 -78 0
-76 -47 -74 0
-76 -47 -101 0
-76 -47 -50 0
-76 -47 -104 0
-76 -47 -53 0
-76 -47 -80 0
-76 -47 -107 0
-76 -74 -101 0
-76 -74 -50 0
-76 -74 -104 0
-76 -74 -53 0
-76 -74 -80 0
-76 -74 -107 0
-76 -101 -50 0
-76 -101 -104 0
-76 -101 -53 0
-76 -101 -80 0
-76 -101 -107 0
-76 -50 -104 0
-76 -50 -53 0
-76 -50 -80 0
-76 -50 -107 0
-76 -104 -53 0
-76 -104 -80 0
-76 -104 -107 0
-76 -53 -80 0
-76 -53 -107 0
-76 -80 -107 0
-76 47 74 101 50 104 53 80 107 0
-77 -48 -75 -102 -51 -105 0
-77 -48 -75 -102 -51 -54 0
-77 -48 -75 -102 -51 -81 0
-77 -48 -75 -102 -51 -108 0
-77 -48 -75 -102 -105 -54 0
-77 -48 -75 -102 -105 -81 0
-77 -48 -75 -102 -105 -108 0
-77 -48 -75 -102 -54 -81 0
-77 -48 -75 -102 -54 -108 0
-77 -48 -75 -102 -81 -108 0
-77 -48 -75 -51 -105 -54 0
-77 -48 -75 -51 -105 -81 0
-77 -48 -75 -51 -105 -108 0
-77 -48 -75 -51 -54 -81 0
-77 -48 -75 -51 -54 -108 0
-77 -48 -75 -51 -81 -108 0
-77 -48 -75 -105 -54 -81 0
-77 -48 -75 -105 -54 -108 0
-77 -48 -75 -105 -81 -108 0
-77 -48 -75 -54 -81 -108 0
-77 -48 -102 -51 -105 -54 0
-77 -48 -102 -51 -105 -81 0
-77 -48 -102 -51 -105 -108 0
-77 -48 -102 -51 -54 -81 0
-77 -48 -102 -51 -54 -108 0
-77 -48 -102 -51 -81 -108 0
-77 -48 -102 -105 -54 -81 0
-77 -48 -102 -105 -54 -108 0
-77 -48 -102 -105 -81 -108 0
-77 -48 -102 -54 -81 -108 0
-77 -48 -51 -105 -54 -81 0
-77 -48 -51 -105 -54 -108 0
-77 -48 -51 -105 -81 -108 0
-77 -48 -51 -54 -81 -108 0
-77 -48 -105 -54 -81 -108 0
-77 -75 -102 -51 -105 -54 0
-77 -75 -102 -51 -105 -81 0
-77 -75 -102 -51 -105 -108 0
-77 -75 -102 -51 -54 -81 0
-77 -75 -102 -51 -54 -108 0
-77 -75 -102 -51 -81 -108 0
-77 -75 -102 -105 -54 -81 0
-77 -75 -102 -105 -54 -108 0
-77 -75 -102 -105 -81 -108 0
-77 -75 -102 -54 -81 -108 0
-77 -75 -51 -105 -54 -81 0
-77 -75 -51 -105 -54 -108 0
-77 -75 -51 -105 -81 -108 0
-77 -75 -51 -54 -81 -108 0
-77 -75 -105 -54 -81 -108 0
-77 -102 -51 -105 -54 -81 0
-77 -102 -51 -105 -54 -108 0
-77 -102 -51 -105 -81 -108 0
-77 -102 -51 -54 -81 -108 0
-77 -102 -105 -54 -81 -108 0
-77 -51 -105 -54 -81 -108 0
-77 48 75 102 51 105 0
-77 48 75 102 51 54 0
-77 48 75 102 51 81 0
-77 48 75 102 51 108 0
-77 48 75 102 105 54 0
-77 48 75 102 105 81 0
-77 48 75 102 105 108 0
-77 48 75 102 54 81 0
-77 48 75 102 54 108 0
-77 48 75 102 81 108 0
-77 48 75 51 105 54 0
-77 48 75 51 105 81 0
-77 48 75 51 105 108 0
-77 48 75 51 54 81 0
-77 48 75 51 54 108 0
-77 48 75 51 81 108 0
-77 48 75 105 54 81 0
-77 48 75 105 54 108 0
-77 48 75 105 81 108 0
-77 48 75 54 81 108 0
-77 48 102 51 105 54 0
-77 48 102 51 105 81 0
-77 48 102 51 105 108 0
-77 48 102 51 54 81 0
-77 48 102 51 54 108 0
-77 48 102 51 81 108 0
-77 48 102 105 54 81 0
-77 48 102 105 54 108 0
-77 48 102 105 81 108 0
-77 48 102 54 81 108 0
-77 48 51 105 54 81 0
-77 48 51 105 54 108 0
-77 48 51 105 81 108 0
-77 48 51 54 81 108 0
-77 48 105 54 81 108 0
-77 75 102 51 105 54 0
-77 75 102 51 105 81 0
-77 75 102 51 105 108 0
-77 75 102 51 54 81 0
-77 75 102 51 54 108 0
-77 75 102 51 81 108 0
-77 75 102 105 54 81 0
-77 75 102 105 54 108 0
-77 75 102 105 81 108 0
-77 75 102 54 81 108 0
-77 75 51 105 54 81 0
-77 75 51 105 54 108 0
-77 75 51 105 81 108 0
-77 75 51 54 81 108 0
-77 75 105 54 81 108 0
-77 102 51 105 54 81 0
-77 102 51 105 54 108 0
-77 102 51 105 81 108 0
-77 102 51 54 81 108 0
-77 102 105 54 81 108 0
-77 51 105 54 81 108 0
-78 -46 -73 -100 -49 -103 -52 0
-78 -46 -73 -100 -49 -103 -79 0
-78 -46 -73 -100 -49 -103 -106 0
-78 -46 -73 -100 -49 -52 -79 0
-78 -46 -73 -100 -49 -52 -106 0
-78 -46 -73 -100 -49 -79 -106 0
-78 -46 -73 -100 -103 -52 -79 0
-78 -46 -73 -100 -103 -52 -106 0
-78 -46 -73 -100 -103 -79 -106 0
-78 -46 -73 -100 -52 -79 -106 0
-78 -46 -73 -49 -103 -52 -79 0
-78 -46 -73 -49 -103 -52 -106 0
-78 -46 -73 -49 -103 -79 -106 0
-78 -46 -73 -49 -52 -79 -106 0
-78 -46 -73 -103 -52 -79 -106 0
-78 -46 -100 -49 -103 -52 -79 0
-78 -46 -100 -49 -103 -52 -106 0
-78 -46 -100 -49 -103 -79 -106 0
-78 -46 -100 -49 -52 -79 -106 0
-78 -46 -100 -103 -52 -79 -106 0
-78 -46 -49 -103 -52 -79 -106 0
-78 -73 -100 -49 -103 -52 -79 0
-78 -73 -100 -49 -103 -52 -106 0
-78 -73 -100 -49 -103 -79 -106 0
-78 -73 -100 -49 -52 -79 -106 0
-78 -73 -100 -103 -52 -79 -106 0
-78 -73 -49 -103 -52 -79 -106 0
-78 -100 -49 -103 -52 -79 -106 0
-78 46 73 100 49 0
-78 46 73 100 103 0
-78 46 73 100 52 0
-78 46 73 100 79 0
-78 46 73 100 106 0
-78 46 73 49 103 0
-78 46 73 49 52 0
-78 46 73 49 79 0
-78 46 73 49 106 0
-78 46 73 103 52 0
-78 46 73 103 79 0
-78 46 73 103 106 0
-78 46 73 52 79 0
-78 46 73 52 106 0
-78 46 73 79 106 0
-78 46 100 49 103 0
-78 46 100 49 52 0
-78 46 100 49 79 0
-78 46 100 49 106 0
-78 46 100 103 52 0
-78 46 100 103 79 0
-78 46 100 103 106 0
-78 46 100 52 79 0
-78 46 100 52 106 0
-78 46 100 79 106 0
-78 46 49 103 52 0
-78 46 49 103 79 0
-78 46 49 103 106 0
-78 46 49 52 79 0
-78 46 49 52 106 0
-78 46 49 79 106 0
-78 46 103 52 79 0
-78 46 103 52 106 0
-78 46 103 79 106 0
-78 46 52 79 106 0
-78 73 100 49 103 0
-78 73 100 49 52 0
-78 73 100 49 79 0
-78 73 100 49 106 0
-78 73 100 103 52 0
-78 73 100 103 79 0
-78 73 100 103 106 0
-78 73 100 52 79 0
-78 73 100 52 106 0
-78 73 100 79 106 0
-78 73 49 103 52 0
-78 73 49 103 79 0
-78 73 49 103 106 0
-78 73 49 52 79 0
-78 73 49 52 106 0
-78 73 49 79 106 0
-78 73 103 52 79 0
-78 73 103 52 106 0
-78 73 103 79 106 0
-78 73 52 79 106 0
-78 100 49 103 52 0
-78 100 49 103 79 0
-78 100 49 103 106 0
-78 100 49 52 79 0
-78 100 49 52 106 0
-78 100 49 79 106 0
-78 100 103 52 79 0
-78 100 103 52 106 0
-78 100 103 79 106 0
-78 100 52 79 106 0
-78 49 103 52 79 0
-78 49 103 52 106 0
-78 49 103 79 106 0
-78 49 52 79 106 0
-78 103 52 79 106 0
-79 -80 0
-79 -81 0
-80 -81 0
-82 -83 0
-82 -84 0
-83 -84 0
-85 -86 0
-85 -87 0
-86 -87 0
-85 -56 -83 0
-85 -56 -110 0
-85 -56 -59 0
-85 -56 -113 0
-85 -56 -62 0
-85 -56 -89 0
-85 -56 -116 0
-85 -83 -110 0
-85 -83 -59 0
-85 -83 -113 0
-85 -83 -62 0
-85 -83 -89 0
-85 -83 -116 0
-85 -110 -59 0
-85 -110 -113 0
-85 -110 -62 0
-85 -110 -89 0
-85 -110 -116 0
-85 -59 -113 0
-85 -59 -62 0
-85 -59 -89 0
-85 -59 -116 0
-85 -113 -62 0
-85 -113 -89 0
-85 -113 -116 0
-85 -62 -89 0
-85 -62 -116 0
-85 -89 -116 0
-85 56 83 110 59 113 62 89 116 0
-86 -57 -84 -111 -60 -114 0
-86 -57 -84 -111 -60 -63 0
-86 -57 -84 -111 -60 -90 0
-86 -57 -84 -111 -60 -117 0
-86 -57 -84 -111 -114 -63 0
-86 -57 -84 -111 -114 -90 0
-86 -57 -84 -111 -114 -117 0
-86 -57 -84 -111 -63 -90 0
-86 -57 -84 -111 -63 -117 0
-86 -57 -84 -111 -90 -117 0
-86 -57 -84 -60 -114 -63 0
-86 -57 -84 -60 -114 -90 0
-86 -57 -84 -60 -114 -117 0
-86 -57 -84 -60 -63 -90 0
-86 -57 -84 -60 -63 -117 0
-86 -57 -84 -60 -90 -117 0
-86 -57 -84 -114 -63 -90 0
-86 -57 -84 -114 -63 -117 0
-86 -57 -84 -114 -90 -117 0
-86 -57 -84 -63 -90 -117 0
-86 -57 -111 -60 -114 -63 0
-86 -57 -111 -60 -114 -90 0
-86 -57 -111 -60 -114 -117 0
-86 -57 -111 -60 -63 -90 0
-86 -57 -111 -60 -63 -117 0
-86 -57 -111 -60 -90 -117 0
-86 -57 -111 -114 -63 -90 0
-86 -57 -111 -114 -63 -117 0
-86 -57 -111 -114 -90 -117 0
-86 -57 -111 -63 -90 -117 0
-86 -57 -60 -114 -63 -90 0
-86 -57 -60 -114 -63 -117 0
-86 -57 -60 -114 -90 -117 0
-86 -57 -60 -63 -90 -117 0
-86 -57 -114 -63 -90 -117 0
-86 -84 -111 -60 -114 -63 0
-86 -84 -111 -60 -114 -90 0
-86 -84 -111 -60 -114 -117 0
-86 -84 -111 -60 -63 -90 0
-86 -84 -111 -60 -63 -117 0
-86 -84 -111 -60 -90 -117 0
-86 -84 -111 -114 -63 -90 0
-86 -84 -111 -114 -63 -117 0
-86 -84 -111 -114 -90 -117 0
-86 -84 -111 -63 -90 -117 0
-86 -84 -60 -114 -63 -90 0
-86 -84 -60 -114 -63 -117 0
-86 -84 -60 -114 -90 -117 0
-86 -84 -60 -63 -90 -117 0
-86 -84 -114 -63 -90 -117 0
-86 -111 -60 -114 -63 -90 0
-86 -111 -60 -114 -63 -117 0
-86 -111 -60 -114 -90 -117 0
-86 -111 -60 -63 -90 -117 0
-86 -111 -114 -63 -90 -117 0
-86 -60 -114 -63 -90 -117 0
-86 57 84 111 60 114 0
-86 57 84 111 60 63 0
-86 57 84 111 60 90 0
-86 57 84 111 60 117 0
-86 57 84 111 114 63 0
-86 57 84 111 114 90 0
-86 57 84 111 114 117 0
-86 57 84 111 63 90 0
-86 57 84 111 63 117 0
-86 57 84 111 90 117 0
-86 57 84 60 114 63 0
-86 57 84 60 114 90 0
-86 57 84 60 114 117 0
-86 57 84 60 63 90 0
-86 57 84 60 63 117 0
-86 57 84 60 90 117 0
-86 57 84 114 63 90 0
-86 57 84 114 63 117 0
-86 57 84 114 90 117 0
-86 57 84 63 90 117 0
-86 57 111 60 114 63 0
-86 57 111 60 114 90 0
-86 57 111 60 114 117 0
-86 57 111 60 63 90 0
-86 57 111 60 63 117 0
-86 57 111 60 90 117 0
-86 57 111 114 63 90 0
-86 57 111 114 63 117 0
-86 57 111 114 90 117 0
-86 57 111 63 90 117 0
-86 57 60 114 63 90 0
-86 57 60 114 63 117 0
-86 57 60 114 90 117 0
-86 57 60 63 90 117 0
-86 57 114 63 90 117 0
-86 84 111 60 114 63 0
-86 84 111 60 114 90 0
-86 84 111 60 114 117 0
-86 84 111 60 63 90 0
-86 84 111 60 63 117 0
-86 84 111 60 90 117 0
-86 84 111 114 63 90 0
-86 84 111 114 63 117 0
-86 84 111 114 90 117 0
-86 84 111 63 90 117 0
-86 84 60 114 63 90 0
-86 84 60 114 63 117 0
-86 84 60 114 90 117 0
-86 84 60 63 90 117 0
-86 84 114 63 90 117 0
-86 111 60 114 63 90 0
-86 111 60 114 63 117 0
-86 111 60 114 90 117 0
-86 111 60 63 90 117 0
-86 111 114 63 90 117 0
-86 60 114 63 90 117 0
-87 -55 -82 -109 -58 -112 -61 0
-87 -55 -82 -109 -58 -112 -88 0
-87 -55 -82 -109 -58 -112 -115 0
-87 -55 -82 -109 -58 -61 -88 0
-87 -55 -82 -109 -58 -61 -115 0
-87 -55 -82 -109 -58 -88 -115 0
-87 -55 -82 -109 -112 -61 -88 0
-87 -55 -82 -109 -112 -61 -115 0
-87 -55 -82 -109 -112 -88 -115 0
-87 -55 -82 -109 -61 -88 -115 0
-87 -55 -82 -58 -112 -61 -88 0
-87 -55 -82 -58 -112 -61 -115 0
-87 -55 -82 -58 -112 -88 -115 0
-87 -55 -82 -58 -61 -88 -115 0
-87 -55 -82 -112 -61 -88 -115 0
-87 -55 -109 -58 -112 -61 -88 0
-87 -55 -109 -58 -112 -61 -115 0
-87 -55 -109 -58 -112 -88 -115 0
-87 -55 -109 -58 -61 -88 -115 0
-87 -55 -109 -112 -61 -88 -115 0
-87 -55 -58 -112 -61 -88 -115 0
-87 -82 -109 -58 -112 -61 -88 0
-87 -82 -109 -58 -112 -61 -115 0
-87 -82 -109 -58 -112 -88 -115 0
-87 -82 -109 -58 -61 -88 -115 0
-87 -82 -109 -112 -61 -88 -115 0
-87 -82 -58 -112 -61 -88 -115 0
-87 -109 -58 -112 -61 -88 -115 0
-87 55 82 109 58 0
-87 55 82 109 112 0
-87 55 82 109 61 0
-87 55 82 109 88 0
-87 55 82 109 115 0
-87 55 82 58 112 0
-87 55 82 58 61 0
-87 55 82 58 88 0
-87 55 82 58 115 0
-87 55 82 112 61 0
-87 55 82 112 88 0
-87 55 82 112 115 0
-87 55 82 61 88 0
-87 55 82 61 115 0
-87 55 82 88 115 0
-87 55 109 58 112 0
-87 55 109 58 61 0
-87 55 109 58 88 0
-87 55 109 58 115 0
-87 55 109 112 61 0
-87 55 109 112 88 0
-87 55 109 112 115 0
-87 55 109 61 88 0
-87 55 109 61 115 0
-87 55 109 88 115 0
-87 55 58 112 61 0
-87 55 58 112 88 0
-87 55 58 112 115 0
-87 55 58 61 88 0
-87 55 58 61 115 0
-87 55 58 88 115 0
-87 55 112 61 88 0
-87 55 112 61 115 0
-87 55 112 88 115 0
-87 55 61 88 115 0
-87 82 109 58 112 0
-87 82 109 58 61 0
-87 82 109 58 88 0
-87 82 109 58 115 0
-87 82 109 112 61 0
-87 82 109 112 88 0
-87 82 109 112 115 0
-87 82 109 61 88 0
-87 82 109 61 115 0
-87 82 109 88 115 0
-87 82 58 112 61 0
-87 82 58 112 88 0
-87 82 58 112 115 0
-87 82 58 61 88 0
-87 82 58 61 115 0
-87 82 58 88 115 0
-87 82 112 61 88 0
-87 82 112 61 115 0
-87 82 112 88 115 0
-87 82 61 88 115 0
-87 109 58 112 61 0
-87 109 58 112 88 0
-87 109 58 112 115 0
-87 109 58 61 88 0
-87 109 58 61 115 0
-87 109 58 88 115 0
-87 109 112 61 88 0
-87 109 112 61 115 0
-87 109 112 88 115 0
-87 109 61 88 115 0
-87 58 112 61 88 0
-87 58 112 61 115 0
-87 58 112 88 115 0
-87 58 61 88 115 0
-87 112 61 88 115 0
-88 -89 0
-88 -90 0
-89 -90 0
-88 -59 -86 0
-88 -59 -113 0
-88 -59 -62 0
-88 -59 -116 0
-88 -59 -65 0
-88 -59 -92 0
-88 -59 -119 0
-88 -86 -113 0
-88 -86 -62 0
-88 -86 -116 0
-88 -86 -65 0
-88 -86 -92 0
-88 -86 -119 0
-88 -113 -62 0
-88 -113 -116 0
-88 -113 -65 0
-88 -113 -92 0
-88 -113 -119 0
-88 -62 -116 0
-88 -62 -65 0
-88 -62 -92 0
-88 -62 -119 0
-88 -116 -65 0
-88 -116 -92 0
-88 -116 -119 0
-88 -65 -92 0
-88 -65 -119 0
-88 -92 -119 0
-88 59 86 113 62 116 65 92 119 0
-89 -60 -87 -114 -63 -117 0
-89 -60 -87 -114 -63 -66 0
-89 -60 -87 -114 -63 -93 0
-89 -60 -87 -114 -63 -120 0
-89 -60 -87 -114 -117 -66 0
-89 -60 -87 -114 -117 -93 0
-89 -60 -87 -114 -117 -120 0
-89 -60 -87 -114 -66 -93 0
-89 -60 -87 -114 -66 -120 0
-89 -60 -87 -114 -93 -120 0
-89 -60 -87 -63 -117 -66 0
-89 -60 -87 -63 -117 -93 0
-89 -60 -87 -63 -117 -120 0
-89 -60 -87 -63 -66 -93 0
-89 -60 -87 -63 -66 -120 0
-89 -60 -87 -63 -93 -120 0
-89 -60 -87 -117 -66 -93 0
-89 -60 -87 -117 -66 -120 0
-89 -60 -87 -117 -93 -120 0
-89 -60 -87 -66 -93 -120 0
-89 -60 -114 -63 -117 -66 0
-89 -60 -114 -63 -117 -93 0
-89 -60 -114 -63 -117 -120 0
-89 -60 -114 -63 -66 -93 0
-89 -60 -114 -63 -66 -120 0
-89 -60 -114 -63 -93 -120 0
-89 -60 -114 -117 -66 -93 0
-89 -60 -114 -117 -66 -120 0
-89 -60 -114 -117 -93 -120 0
-89 -60 -114 -66 -93 -120 0
-89 -60 -63 -117 -66 -93 0
-89 -60 -63 -117 -66 -120 0
-89 -60 -63 -117 -93 -120 0
-89 -60 -63 -66 -93 -120 0
-89 -60 -117 -66 -93 -120 0
-89 -87 -114 -63 -117 -66 0
-89 -87 -114 -63 -117 -93 0
-89 -87 -114 -63 -117 -120 0
-89 -87 -114 -63 -66 -93 0
-89 -87 -114 -63 -66 -120 0
-89 -87 -114 -63 -93 -120 0
-89 -87 -114 -117 -66 -93 0
-89 -87 -114 -117 -66 -120 0
-89 -87 -114 -117 -93 -120 0
-89 -87 -114 -66 -93 -120 0
-89 -87 -63 -117 -66 -93 0
-89 -87 -63 -117 -66 -120 0
-89 -87 -63 -117 -93 -120 0
-89 -87 -63 -66 -93 -120 0
-89 -87 -117 -66 -93 -120 0
-89 -114 -63 -117 -66 -93 0
-89 -114 -63 -117 -66 -120 0
-89 -114 -63 -117 -93 -120 0
-89 -114 -63 -66 -93 -120 0
-89 -114 -117 -66 -93 -120 0
-89 -63 -117 -66 -93 -120 0
-89 60 87 114 63 117 0
-89 60 87 114 63 66 0
-89 60 87 114 63 93 0
-89 60 87 114 63 120 0
-89 60 87 114 117 66 0
-89 60 87 114 117 93 0
-89 60 87 114 117 120 0
-89 60 87 114 66 93 0
-89 60 87 114 66 120 0
-89 60 87 114 93 120 0
-89 60 87 63 117 66 0
-89 60 87 63 117 93 0
-89 60 87 63 117 120 0
-89 60 87 63 66 93 0
-89 60 87 63 66 120 0
-89 60 87 63 93 120 0
-89 60 87 117 66 93 0
-89 60 87 117 66 120 0
-89 60 87 117 93 120 0
-89 60 87 66 93 120 0
-89 60 114 63 117 66 0
-89 60 114 63 117 93 0
-89 60 114 63 117 120 0
-89 60 114 63 66 93 0
-89 60 114 63 66 120 0
-89 60 114 63 93 120 0
-89 60 114 117 66 93 0
-89 60 114 117 66 120 0
-89 60 114 117 93 120 0
-89 60 114 66 93 120 0
-89 60 63 117 66 93 0
-89 60 63 117 66 120 0
-89 60 63 117 93 120 0
-89 60 63 66 93 120 0
-89 60 117 66 93 120 0
-89 87 114 63 117 66 0
-89 87 114 63 117 93 0
-89 87 114 63 117 120 0
-89 87 114 63 66 93 0
-89 87 114 63 66 120 0
-89 87 114 63 93 120 0
-89 87 114 117 66 93 0
-89 87 114 117 66 120 0
-89 87 114 117 93 120 0
-89 87 114 66 93 120 0
-89 87 63 117 66 93 0
-89 87 63 117 66 120 0
-89 87 63 117 93 120 0
-89 87 63 66 93 120 0
-89 87 117 66 93 120 0
-89 114 63 117 66 93 0
-89 114 63 117 66 120 0
-89 114 63 117 93 120 0
-89 114 63 66 93 120 0
-89 114 117 66 93 120 0
-89 63 117 66 93 120 0
-90 -58 -85 -112 -61 -115 -64 0
-90 -58 -85 -112 -61 -115 -91 0
-90 -58 -85 -112 -61 -115 -118 0
-90 -58 -85 -112 -61 -64 -91 0
-90 -58 -85 -112 -61 -64 -118 0
-90 -58 -85 -112 -61 -91 -118 0
-90 -58 -85 -112 -115 -64 -91 0
-90 -58 -85 -112 -115 -64 -118 0
-90 -58 -85 -112 -115 -91 -118 0
-90 -58 -85 -112 -64 -91 -118 0
-90 -58 -85 -61 -115 -64 -91 0
-90 -58 -85 -61 -115 -64 -118 0
-90 -58 -85 -61 -115 -91 -118 0
-90 -58 -85 -61 -64 -91 -118 0
-90 -58 -85 -115 -64 -91 -118 0
-90 -58 -112 -61 -115 -64 -91 0
-90 -58 -112 -61 -115 -64 -118 0
-90 -58 -112 -61 -115 -91 -118 0
-90 -58 -112 -61 -64 -91 -118 0
-90 -58 -112 -115 -64 -91 -118 0
-90 -58 -61 -115 -64 -91 -118 0
-90 -85 -112 -61 -115 -64 -91 0
-90 -85 -112 -61 -115 -64 -118 0
-90 -85 -112 -61 -115 -91 -118 0
-90 -85 -112 -61 -64 -91 -118 0
-90 -85 -112 -115 -64 -91 -118 0
-90 -85 -61 -115 -64 -91 -118 0
-90 -112 -61 -115 -64 -91 -118 0
-90 58 85 112 61 0
-90 58 85 112 115 0
-90 58 85 112 64 0
-90 58 85 112 91 0
-90 58 85 112 118 0
-90 58 85 61 115 0
-90 58 85 61 64 0
-90 58 85 61 91 0
-90 58 85 61 118 0
-90 58 85 115 64 0
-90 58 85 115 91 0
-90 58 85 115 118 0
-90 58 85 64 91 0
-90 58 85 64 118 0
-90 58 85 91 118 0
-90 58 112 61 115 0
-90 58 112 61 64 0
-90 58 112 61 91 0
-90 58 112 61 118 0
-90 58 112 115 64 0
-90 58 112 115 91 0
-90 58 112 115 118 0
-90 58 112 64 91 0
-90 58 112 64 118 0
-90 58 112 91 118 0
-90 58 61 115 64 0
-90 58 61 115 91 0
-90 58 61 115 118 0
-90 58 61 64 91 0
-90 58 61 64 118 0
-90 58 61 91 118 0
-90 58 115 64 91 0
-90 58 115 64 118 0
-90 58 115 91 118 0
-90 58 64 91 118 0
-90 85 112 61 115 0
-90 85 112 61 64 0
-90 85 112 61 91 0
-90 85 112 61 118 0
-90 85 112 115 64 0
-90 85 112 115 91 0
-90 85 112 115 118 0
-90 85 112 64 91 0
-90 85 112 64 118 0
-90 85 112 91 118 0
-90 85 61 115 64 0
-90 85 61 115 91 0
-90 85 61 115 118 0
-90 85 61 64 91 0
-90 85 61 64 118 0
-90 85 61 91 118 0
-90 85 115 64 91 0
-90 85 115 64 118 0
-90 85 115 91 118 0
-90 85 64 91 118 0
-90 112 61 115 64 0
-90 112 61 115 91 0
-90 112 61 115 118 0
-90 112 61 64 91 0
-90 112 61 64 118 0
-90 112 61 91 118 0
-90 112 115 64 91 0
-90 112 115 64 118 0
-90 112 115 91 118 0
-90 112 64 91 118 0
-90 61 115 64 91 0
-90 61 115 64 118 0
-90 61 115 91 118 0
-90 61 64 91 118 0
-90 115 64 91 118 0
-91 -92 0
-91 -93 0
-92 -93 0
-91 -62 -89 0
-91 -62 -116 0
-91 -62 -65 0
-91 -62 -119 0
-91 -62 -68 0
-91 -62 -95 0
-91 -62 -122 0
-91 -89 -116 0
-91 -89 -65 0
-91 -89 -119 0
-91 -89 -68 0
-91 -89 -95 0
-91 -89 -122 0
-91 -116 -65 0
-91 -116 -119 0
-91 -116 -68 0
-91 -116 -95 0
-91 -116 -122 0
-91 -65 -119 0
-91 -65 -68 0
-91 -65 -95 0
-91 -65 -122 0
-91 -119 -68 0
-91 -119 -95 0
-91 -119 -122 0
-91 -68 -95 0
-91 -68 -122 0
-91 -95 -122 0
-91 62 89 116 65 119 68 95 122 0
-92 -63 -90 -117 -66 -120 0
-92 -63 -90 -117 -66 -69 0
-92 -63 -90 -117 -66 -96 0
-92 -63 -90 -117 -66 -123 0
-92 -63 -90 -117 -120 -69 0
-92 -63 -90 -117 -120 -96 0
-92 -63 -90 -117 -120 -123 0
-92 -63 -90 -117 -69 -96 0
-92 -63 -90 -117 -69 -123 0
-92 -63 -90 -117 -96 -123 0
-92 -63 -90 -66 -120 -69 0
-92 -63 -90 -66 -120 -96 0
-92 -63 -90 -66 -120 -123 0
-92 -63 -90 -66 -69 -96 0
-92 -63 -90 -66 -69 -123 0
-92 -63 -90 -66 -96 -123 0
-92 -63 -90 -120 -69 -96 0
-92 -63 -90 -120 -69 -123 0
-92 -63 -90 -120 -96 -123 0
-92 -63 -90 -69 -96 -123 0
-92 -63 -117 -66 -120 -69 0
-92 -63 -117 -66 -120 -96 0
-92 -63 -117 -66 -120 -123 0
-92 -63 -117 -66 -69 -96 0
-92 -63 -117 -66 -69 -123 0
-92 -63 -117 -66 -96 -123 0
-92 -63 -117 -120 -69 -96 0
-92 -63 -117 -120 -69 -123 0
-92 -63 -117 -120 -96 -123 0
-92 -63 -117 -69 -96 -123 0
-92 -63 -66 -120 -69 -96 0
-92 -63 -66 -120 -69 -123 0
-92 -63 -66 -120 -96 -123 0
-92 -63 -66 -69 -96 -123 0
-92 -63 -120 -69 -96 -123 0
-92 -90 -117 -66 -120 -69 0
-92 -90 -117 -66 -120 -96 0
-92 -90 -117 -66 -120 -123 0
-92 -90 -117 -66 -69 -96 0
-92 -90 -117 -66 -69 -123 0
-92 -90 -117 -66 -96 -123 0
-92 -90 -117 -120 -69 -96 0
-92 -90 -117 -120 -69 -123 0
-92 -90 -117 -120 -96 -123 0
-92 -90 -117 -69 -96 -123 0
-92 -90 -66 -120 -69 -96 0
-92 -90 -66 -120 -69 -123 0
-92 -90 -66 -120 -96 -123 0
-92 -90 -66 -69 -96 -123 0
-92 -90 -120 -69 -96 -123 0
-92 -117 -66 -120 -69 -96 0
-92 -117 -66 -120 -69 -123 0
-92 -117 -66 -120 -96 -123 0
-92 -117 -66 -69 -96 -123 0
-92 -117 -120 -69 -96 -123 0
-92 -66 -120 -69 -96 -123 0
-92 63 90 117 66 120 0
-92 63 90 117 66 69 0
-92 63 90 117 66 96 0
-92 63 90 117 66 123 0
-92 63 90 117 120 69 0
-92 63 90 117 120 96 0
-92 63 90 117 120 123 0
-92 63 90 117 69 96 0
-92 63 90 117 69 123 0
-92 63 90 117 96 123 0
-92 63 90 66 120 69 0
-92 63 90 66 120 96 0
-92 63 90 66 120 123 0
-92 63 90 66 69 96 0
-92 63 90 66 69 123 0
-92 63 90 66 96 123 0
-92 63 90 120 69 96 0
-92 63 90 120 69 123 0
-92 63 90 120 96 123 0
-92 63 90 69 96 123 0
-92 63 117 66 120 69 0
-92 63 117 66 120 96 0
-92 63 117 66 120 123 0
-92 63 117 66 69 96 0
-92 63 117 66 69 123 0
-92 63 117 66 96 123 0
-92 63 117 120 69 96 0
-92 63 117 120 69 123 0
-92 63 117 120 96 123 0
-92 63 117 69 96 123 0
-92 63 66 120 69 96 0
-92 63 66 120 69 123 0
-92 63 66 120 96 123 0
-92 63 66 69 96 123 0
-92 63 120 69 96 123 0
-92 90 117 66 120 69 0
-92 90 117 66 120 96 0
-92 90 117 66 120 123 0
-92 90 117 66 69 96 0
-92 90 117 66 69 123 0
-92 90 117 66 96 123 0
-92 90 117 120 69 96 0
-92 90 117 120 69 123 0
-92 90 117 120 96 123 0
-92 90 117 69 96 123 0
-92 90 66 120 69 96 0
-92 90 66 120 69 123 0
-92 90 66 120 96 123 0
-92 90 66 69 96 123 0
-92 90 120 69 96 123 0
-92 117 66 120 69 96 0
-92 117 66 120 69 123 0
-92 117 66 120 96 123 0
-92 117 66 69 96 123 0
-92 117 120 69 96 123 0
-92 66 120 69 96 123 0
-93 -61 -88 -115 -64 -118 -67 0
-93 -61 -88 -115 -64 -118 -94 0
-93 -61 -88 -115 -64 -118 -121 0
-93 -61 -88 -115 -64 -67 -94 0
-93 -61 -88 -115 -64 -67 -121 0
-93 -61 -88 -115 -64 -94 -121 0
-93 -61 -88 -115 -118 -67 -94 0
-93 -61 -88 -115 -118 -67 -121 0
-93 -61 -88 -115 -118 -94 -121 0
-93 -61 -88 -115 -67 -94 -121 0
-93 -61 -88 -64 -118 -67 -94 0
-93 -61 -88 -64 -118 -67 -121 0
-93 -61 -88 -64 -118 -94 -121 0
-93 -61 -88 -64 -67 -94 -121 0
-93 -61 -88 -118 -67 -94 -121 0
-93 -61 -115 -64 -118 -67 -94 0
-93 -61 -115 -64 -118 -67 -121 0
-93 -61 -115 -64 -118 -94 -121 0
-93 -61 -115 -64 -67 -94 -121 0
-93 -61 -115 -118 -67 -94 -121 0
-93 -61 -64 -118 -67 -94 -121 0
-93 -88 -115 -64 -118 -67 -94 0
-93 -88 -115 -64 -118 -67 -121 0
-93 -88 -115 -64 -118 -94 -121 0
-93 -88 -115 -64 -67 -94 -121 0
-93 -88 -115 -118 -67 -94 -121 0
-93 -88 -64 -118 -67 -94 -121 0
-93 -115 -64 -118 -67 -94 -121 0
-93 61 88 115 64 0
-93 61 88 115 118 0
-93 61 88 115 67 0
-93 61 88 115 94 0
-93 61 88 115 121 0
-93 61 88 64 118 0
-93 61 88 64 67 0
-93 61 88 64 94 0
-93 61 88 64 121 0
-93 61 88 118 67 0
-93 61 88 118 94 0
-93 61 88 118 121 0
-93 61 88 67 94 0
-93 61 88 67 121 0
-93 61 88 94 121 0
-93 61 115 64 118 0
-93 61 115 64 67 0
-93 61 115 64 94 0
-93 61 115 64 121 0
-93 61 115 118 67 0
-93 61 115 118 94 0
-93 61 115 118 121 0
-93 61 115 67 94 0
-93 61 115 67 121 0
-93 61 115 94 121 0
-93 61 64 118 67 0
-93 61 64 118 94 0
-93 61 64 118 121 0
-93 61 64 67 94 0
-93 61 64 67 121 0
-93 61 64 94 121 0
-93 61 118 67 94 0
-93 61 118 67 121 0
-93 61 118 94 121 0
-93 61 67 94 121 0
-93 88 115 64 118 0
-93 88 115 64 67 0
-93 88 115 64 94 0
-93 88 115 64 121 0
-93 88 115 118 67 0
-93 88 115 118 94 0
-93 88 115 118 121 0
-93 88 115 67 94 0
-93 88 115 67 121 0
-93 88 115 94 121 0
-93 88 64 118 67 0
-93 88 64 118 94 0
-93 88 64 118 121 0
-93 88 64 67 94 0
-93 88 64 67 121 0
-93 88 64 94 121 0
-93 88 118 67 94 0
-93 88 118 67 121 0
-93 88 118 94 121 0
-93 88 67 94 121 0
-93 115 64 118 67 0
-93 115 64 118 94 0
-93 115 64 118 121 0
-93 115 64 67 94 0
-93 115 64 67 121 0
-93 115 64 94 121 0
-93 115 118 67 94 0
-93 115 118 67 121 0
-93 115 118 94 121 0
-93 115 67 94 121 0
-93 64 118 67 94 0
-93 64 118 67 121 0
-93 64 118 94 121 0
-93 64 67 94 121 0
-93 118 67 94 121 0
-94 -95 0
-94 -96 0
-95 -96 0
-94 -65 -92 0
-94 -65 -119 0
-94 -65 -68 0
-94 -65 -122 0
-94 -65 -71 0
-94 -65 -98 0
-94 -92 -119 0
-94 -92 -68 0
-94 -92 -122 0
-94 -92 -71 0
-94 -92 -98 0
-94 -119 -68 0
-94 -119 -122 0
-94 -119 -71 0
-94 -119 -98 0
-94 -68 -122 0
-94 -68 -71 0
-94 -68 -98 0
-94 -122 -71 0
-94 -122 -98 0
-94 -71 -98 0
-94 65 92 119 68 122 71 98 0
-95 -66 -93 -120 -69 -123 0
-95 -66 -93 -120 -69 -72 0
-95 -66 -93 -120 -69 -99 0
-95 -66 -93 -120 -123 -72 0
-95 -66 -93 -120 -123 -99 0
-95 -66 -93 -120 -72 -99 0
-95 -66 -93 -69 -123 -72 0
-95 -66 -93 -69 -123 -99 0
-95 -66 -93 -69 -72 -99 0
-95 -66 -93 -123 -72 -99 0
-95 -66 -120 -69 -123 -72 0
-95 -66 -120 -69 -123 -99 0
-95 -66 -120 -69 -72 -99 0
-95 -66 -120 -123 -72 -99 0
-95 -66 -69 -123 -72 -99 0
-95 -93 -120 -69 -123 -72 0
-95 -93 -120 -69 -123 -99 0
-95 -93 -120 -69 -72 -99 0
-95 -93 -120 -123 -72 -99 0
-95 -93 -69 -123 -72 -99 0
-95 -120 -69 -123 -72 -99 0
-95 66 93 120 69 0
-95 66 93 120 123 0
-95 66 93 120 72 0
-95 66 93 120 99 0
-95 66 93 69 123 0
-95 66 93 69 72 0
-95 66 93 69 99 0
-95 66 93 123 72 0
-95 66 93 123 99 0
-95 66 93 72 99 0
-95 66 120 69 123 0
-95 66 120 69 72 0
-95 66 120 69 99 0
-95 66 120 123 72 0
-95 66 120 123 99 0
-95 66 120 72 99 0
-95 66 69 123 72 0
-95 66 69 123 99 0
-95 66 69 72 99 0
-95 66 123 72 99 0
-95 93 120 69 123 0
-95 93 120 69 72 0
-95 93 120 69 99 0
-95 93 120 123 72 0
-95 93 120 123 99 0
-95 93 120 72 99 0
-95 93 69 123 72 0
-95 93 69 123 99 0
-95 93 69 72 99 0
-95 93 123 72 99 0
-95 120 69 123 72 0
-95 120 69 123 99 0
-95 120 69 72 99 0
-95 120 123 72 99 0
-95 69 123 72 99 0
-96 -64 -91 -118 -67 -121 -70 0
-96 -64 -91 -118 -67 -121 -97 0
-96 -64 -91 -118 -67 -70 -97 0
-96 -64 -91 -118 -121 -70 -97 0
-96 -64 -91 -67 -121 -70 -97 0
-96 -64 -118 -67 -121 -70 -97 0
-96 -91 -118 -67 -121 -70 -97 0
-96 64 91 118 0
-96 64 91 67 0
-96 64 91 121 0
-96 64 91 70 0
-96 64 91 97 0
-96 64 118 67 0
-96 64 118 121 0
-96 64 118 70 0
-96 64 118 97 0
-96 64 67 121 0
-96 64 67 70 0
-96 64 67 97 0
-96 64 121 70 0
-96 64 121 97 0
-96 64 70 97 0
-96 91 118 67 0
-96 91 118 121 0
-96 91 118 70 0
-96 91 118 97 0
-96 91 67 121 0
-96 91 67 70 0
-96 91 67 97 0
-96 91 121 70 0
-96 91 121 97 0
-96 91 70 97 0
-96 118 67 121 0
-96 118 67 70 0
-96 118 67 97 0
-96 118 121 70 0
-96 118 121 97 0
-96 118 70 97 0
-96 67 121 70 0
-96 67 121 97 0
-96 67 70 97 0
-96 121 70 97 0
-97 -98 0
-97 -99 0
-98 -99 0
-97 -68 -95 0
-97 -68 -122 0
-97 -68 -71 0
-97 -68 -74 0
-97 -68 -101 0
-97 -95 -122 0
-97 -95 -71 0
-97 -95 -74 0
-97 -95 -101 0
-97 -122 -71 0
-97 -122 -74 0
-97 -122 -101 0
-97 -71 -74 0
-97 -71 -101 0
-97 -74 -101 0
-97 68 95 122 71 74 101 0
-98 -69 -96 -123 -72 -75 0
-98 -69 -96 -123 -72 -102 0
-98 -69 -96 -123 -75 -102 0
-98 -69 -96 -72 -75 -102 0
-98 -69 -123 -72 -75 -102 0
-98 -96 -123 -72 -75 -102 0
-98 69 96 123 0
-98 69 96 72 0
-98 69 96 75 0
-98 69 96 102 0
-98 69 123 72 0
-98 69 123 75 0
-98 69 123 102 0
-98 69 72 75 0
-98 69 72 102 0
-98 69 75 102 0
-98 96 123 72 0
-98 96 123 75 0
-98 96 123 102 0
-98 96 72 75 0
-98 96 72 102 0
-98 96 75 102 0
-98 123 72 75 0
-98 123 72 102 0
-98 123 75 102 0
-98 72 75 102 0
-99 -67 -94 -121 -70 -73 -100 0
-99 67 94 0
-99 67 121 0
-99 67 70 0
-99 67 73 0
-99 67 100 0
-99 94 121 0
-99 94 70 0
-99 94 73 0
-99 94 100 0
-99 121 70 0
-99 121 73 0
-99 121 100 0
-99 70 73 0
-99 70 100 0
-99 73 100 0
-100 -101 0
-100 -102 0
-101 -102 0
-100 -71 -98 0
-100 -71 -74 0
-100 -71 -77 0
-100 -71 -104 0
-100 -98 -74 0
-100 -98 -77 0
-100 -98 -104 0
-100 -74 -77 0
-100 -74 -104 0
-100 -77 -104 0
-100 71 98 74 77 104 0
-101 -72 -99 -75 -78 -105 0
-101 72 99 0
-101 72 75 0
-101 72 78 0
-101 72 105 0
-101 99 75 0
-101 99 78 0
-101 99 105 0
-101 75 78 0
-101 75 105 0
-101 78 105 0
-102 70 0
-102 97 0
-102 73 0
-102 76 0
-102 103 0
-103 -104 0
-103 -105 0
-104 -105 0
-103 -74 -101 0
-103 -74 -77 0
-103 -74 -80 0
-103 -74 -107 0
-103 -101 -77 0
-103 -101 -80 0
-103 -101 -107 0
-103 -77 -80 0
-103 -77 -107 0
-103 -80 -107 0
-103 74 101 77 80 107 0
-104 -75 -102 -78 -81 -108 0
-104 75 102 0
-104 75 78 0
-104 75 81 0
-104 75 108 0
-104 102 78 0
-104 102 81 0
-104 102 108 0
-104 78 81 0
-104 78 108 0
-104 81 108 0
-105 73 0
-105 100 0
-105 76 0
-105 79 0
-105 106 0
-106 -107 0
-106 -108 0
-107 -108 0
-109 -110 0
-109 -111 0
-110 -111 0
-112 -113 0
-112 -114 0
-113 -114 0
-112 -83 -110 0
-112 -83 -86 0
-112 -83 -89 0
-112 -83 -116 0
-112 -110 -86 0
-112 -110 -89 0
-112 -110 -116 0
-112 -86 -89 0
-112 -86 -116 0
-112 -89 -116 0
-112 83 110 86 89 116 0
-113 -84 -111 -87 -90 -117 0
-113 84 111 0
-113 84 87 0
-113 84 90 0
-113 84 117 0
-113 111 87 0
-113 111 90 0
-113 111 117 0
-113 87 90 0
-113 87 117 0
-113 90 117 0
-114 82 0
-114 109 0
-114 85 0
-114 88 0
-114 115 0
-115 -116 0
-115 -117 0
-116 -117 0
-115 -86 -113 0
-115 -86 -89 0
-115 -86 -92 0
-115 -86 -119 0
-115 -113 -89 0
-115 -113 -92 0
-115 -113 -119 0
-115 -89 -92 0
-115 -89 -119 0
-115 -92 -119 0
-115 86 113 89 92 119 0
-116 -87 -114 -90 -93 -120 0
-116 87 114 0
-116 87 90 0
-116 87 93 0
-116 87 120 0
-116 114 90 0
-116 114 93 0
-116 114 120 0
-116 90 93 0
-116 90 120 0
-116 93 120 0
-117 85 0
-117 112 0
-117 88 0
-117 91 0
-117 118 0
-118 -119 0
-118 -120 0
-119 -120 0
-118 -89 -116 0
-118 -89 -92 0
-118 -89 -95 0
-118 -89 -122 0
-118 -116 -92 0
-118 -116 -95 0
-118 -116 -122 0
-118 -92 -95 0
-118 -92 -122 0
-118 -95 -122 0
-118 89 116 92 95 122 0
-119 -90 -117 -93 -96 -123 0
-119 90 117 0
-119 90 93 0
-119 90 96 0
-119 90 123 0
-119 117 93 0
-119 117 96 0
-119 117 123 0
-119 93 96 0
-119 93 123 0
-119 96 123 0
-120 88 0
-120 115 0
-120 91 0
-120 94 0
-120 121 0
-121 -122 0
-121 -123 0
-122 -123 0
-121 -92 -119 0
-121 -92 -95 0
-121 -92 -98 0
-121 -119 -95 0
-121 -119 -98 0
-121 -95 -98 0
-121 92 119 95 98 0
-122 93 0
-122 120 0
-122 96 0
-122 99 0
-123 0
121 122 123 0
