p cnf 435 26362
-1 -2 0
-1 -3 0
-2 -3 0
-4 -5 0
-4 -6 0
-5 -6 0
-7 -8 0
-7 -9 0
-8 -9 0
-10 -11 0
-10 -12 0
-11 -12 0
-13 -14 0
-13 -15 0
-14 -15 0
-16 -17 0
-16 -18 0
-17 -18 0
-19 -20 0
-19 -21 0
-20 -21 0
-22 -23 0
-22 -24 0
-23 -24 0
-25 -26 0
-25 -27 0
-26 -27 0
-28 -29 0
-28 -30 0
-29 -30 0
-31 -32 0
-31 -33 0
-32 -33 0
-34 -35 0
-34 -36 0
-35 -36 0
-37 -38 0
-37 -39 0
-38 -39 0
-40 -41 0
-40 -42 0
-41 -42 0
-43 -44 0
-43 -45 0
-44 -45 0
-46 -47 0
-46 -48 0
-47 -48 0
-49 -50 0
-49 -51 0
-50 -51 0
-52 -53 0
-52 -54 0
-53 -54 0
-52 -2 -50 -95 0
-52 -2 -50 -5 0
-52 -2 -50 -98 0
-52 -2 -50 -8 0
-52 -2 -50 -56 0
-52 -2 -50 -101 0
-52 -2 -95 -5 0
-52 -2 -95 -98 0
-52 -2 -95 -8 0
-52 -2 -95 -56 0
-52 -2 -95 -101 0
-52 -2 -5 -98 0
-52 -2 -5 -8 0
-52 -2 -5 -56 0
-52 -2 -5 -101 0
-52 -2 -98 -8 0
-52 -2 -98 -56 0
-52 -2 -98 -101 0
-52 -2 -8 -56 0
-52 -2 -8 -101 0
-52 -2 -56 -101 0
-52 -50 -95 -5 0
-52 -50 -95 -98 0
-52 -50 -95 -8 0
-52 -50 -95 -56 0
-52 -50 -95 -101 0
-52 -50 -5 -98 0
-52 -50 -5 -8 0
-52 -50 -5 -56 0
-52 -50 -5 -101 0
-52 -50 -98 -8 0
-52 -50 -98 -56 0
-52 -50 -98 -101 0
-52 -50 -8 -56 0
-52 -50 -8 -101 0
-52 -50 -56 -101 0
-52 -95 -5 -98 0
-52 -95 -5 -8 0
-52 -95 -5 -56 0
-52 -95 -5 -101 0
-52 -95 -98 -8 0
-52 -95 -98 -56 0
-52 -95 -98 -101 0
-52 -95 -8 -56 0
-52 -95 -8 -101 0
-52 -95 -56 -101 0
-52 -5 -98 -8 0
-52 -5 -98 -56 0
-52 -5 -98 -101 0
-52 -5 -8 -56 0
-52 -5 -8 -101 0
-52 -5 -56 -101 0
-52 -98 -8 -56 0
-52 -98 -8 -101 0
-52 -98 -56 -101 0
-52 -8 -56 -101 0
-52 2 50 95 5 98 8 56 0
-52 2 50 95 5 98 8 101 0
-52 2 50 95 5 98 56 101 0
-52 2 50 95 5 8 56 101 0
-52 2 50 95 98 8 56 101 0
-52 2 50 5 98 8 56 101 0
-52 2 95 5 98 8 56 101 0
-52 50 95 5 98 8 56 101 0
-53 -3 -51 -96 -6 0
-53 -3 -51 -96 -99 0
-53 -3 -51 -96 -9 0
-53 -3 -51 -96 -57 0
-53 -3 -51 -96 -102 0
-53 -3 -51 -6 -99 0
-53 -3 -51 -6 -9 0
-53 -3 -51 -6 -57 0
-53 -3 -51 -6 -102 0
-53 -3 -51 -99 -9 0
-53 -3 -51 -99 -57 0
-53 -3 -51 -99 -102 0
-53 -3 -51 -9 -57 0
-53 -3 -51 -9 -102 0
-53 -3 -51 -57 -102 0
-53 -3 -96 -6 -99 0
-53 -3 -96 -6 -9 0
-53 -3 -96 -6 -57 0
-53 -3 -96 -6 -102 0
-53 -3 -96 -99 -9 0
-53 -3 -96 -99 -57 0
-53 -3 -96 -99 -102 0
-53 -3 -96 -9 -57 0
-53 -3 -96 -9 -102 0
-53 -3 -96 -57 -102 0
-53 -3 -6 -99 -9 0
-53 -3 -6 -99 -57 0
-53 -3 -6 -99 -102 0
-53 -3 -6 -9 -57 0
-53 -3 -6 -9 -102 0
-53 -3 -6 -57 -102 0
-53 -3 -99 -9 -57 0
-53 -3 -99 -9 -102 0
-53 -3 -99 -57 -102 0
-53 -3 -9 -57 -102 0
-53 -51 -96 -6 -99 0
-53 -51 -96 -6 -9 0
-53 -51 -96 -6 -57 0
-53 -51 -96 -6 -102 0
-53 -51 -96 -99 -9 0
-53 -51 -96 -99 -57 0
-53 -51 -96 -99 -102 0
-53 -51 -96 -9 -57 0
-53 -51 -96 -9 -102 0
-53 -51 -96 -57 -102 0
-53 -51 -6 -99 -9 0
-53 -51 -6 -99 -57 0
-53 -51 -6 -99 -102 0
-53 -51 -6 -9 -57 0
-53 -51 -6 -9 -102 0
-53 -51 -6 -57 -102 0
-53 -51 -99 -9 -57 0
-53 -51 -99 -9 -102 0
-53 -51 -99 -57 -102 0
-53 -51 -9 -57 -102 0
-53 -96 -6 -99 -9 0
-53 -96 -6 -99 -57 0
-53 -96 -6 -99 -102 0
-53 -96 -6 -9 -57 0
-53 -96 -6 -9 -102 0
-53 -96 -6 -57 -102 0
-53 -96 -99 -9 -57 0
-53 -96 -99 -9 -102 0
-53 -96 -99 -57 -102 0
-53 -96 -9 -57 -102 0
-53 -6 -99 -9 -57 0
-53 -6 -99 -9 -102 0
-53 -6 -99 -57 -102 0
-53 -6 -9 -57 -102 0
-53 -99 -9 -57 -102 0
-53 3 51 96 6 99 9 0
-53 3 51 96 6 99 57 0
-53 3 51 96 6 99 102 0
-53 3 51 96 6 9 57 0
-53 3 51 96 6 9 102 0
-53 3 51 96 6 57 102 0
-53 3 51 96 99 9 57 0
-53 3 51 96 99 9 102 0
-53 3 51 96 99 57 102 0
-53 3 51 96 9 57 102 0
-53 3 51 6 99 9 57 0
-53 3 51 6 99 9 102 0
-53 3 51 6 99 57 102 0
-53 3 51 6 9 57 102 0
-53 3 51 99 9 57 102 0
-53 3 96 6 99 9 57 0
-53 3 96 6 99 9 102 0
-53 3 96 6 99 57 102 0
-53 3 96 6 9 57 102 0
-53 3 96 99 9 57 102 0
-53 3 6 99 9 57 102 0
-53 51 96 6 99 9 57 0
-53 51 96 6 99 9 102 0
-53 51 96 6 99 57 102 0
-53 51 96 6 9 57 102 0
-53 51 96 99 9 57 102 0
-53 51 6 99 9 57 102 0
-53 96 6 99 9 57 102 0
-54 -1 -49 -94 -4 -97 0
-54 -1 -49 -94 -4 -7 0
-54 -1 -49 -94 -4 -55 0
-54 -1 -49 -94 -4 -100 0
-54 -1 -49 -94 -97 -7 0
-54 -1 -49 -94 -97 -55 0
-54 -1 -49 -94 -97 -100 0
-54 -1 -49 -94 -7 -55 0
-54 -1 -49 -94 -7 -100 0
-54 -1 -49 -94 -55 -100 0
-54 -1 -49 -4 -97 -7 0
-54 -1 -49 -4 -97 -55 0
-54 -1 -49 -4 -97 -100 0
-54 -1 -49 -4 -7 -55 0
-54 -1 -49 -4 -7 -100 0
-54 -1 -49 -4 -55 -100 0
-54 -1 -49 -97 -7 -55 0
-54 -1 -49 -97 -7 -100 0
-54 -1 -49 -97 -55 -100 0
-54 -1 -49 -7 -55 -100 0
-54 -1 -94 -4 -97 -7 0
-54 -1 -94 -4 -97 -55 0
-54 -1 -94 -4 -97 -100 0
-54 -1 -94 -4 -7 -55 0
-54 -1 -94 -4 -7 -100 0
-54 -1 -94 -4 -55 -100 0
-54 -1 -94 -97 -7 -55 0
-54 -1 -94 -97 -7 -100 0
-54 -1 -94 -97 -55 -100 0
-54 -1 -94 -7 -55 -100 0
-54 -1 -4 -97 -7 -55 0
-54 -1 -4 -97 -7 -100 0
-54 -1 -4 -97 -55 -100 0
-54 -1 -4 -7 -55 -100 0
-54 -1 -97 -7 -55 -100 0
-54 -49 -94 -4 -97 -7 0
-54 -49 -94 -4 -97 -55 0
-54 -49 -94 -4 -97 -100 0
-54 -49 -94 -4 -7 -55 0
-54 -49 -94 -4 -7 -100 0
-54 -49 -94 -4 -55 -100 0
-54 -49 -94 -97 -7 -55 0
-54 -49 -94 -97 -7 -100 0
-54 -49 -94 -97 -55 -100 0
-54 -49 -94 -7 -55 -100 0
-54 -49 -4 -97 -7 -55 0
-54 -49 -4 -97 -7 -100 0
-54 -49 -4 -97 -55 -100 0
-54 -49 -4 -7 -55 -100 0
-54 -49 -97 -7 -55 -100 0
-54 -94 -4 -97 -7 -55 0
-54 -94 -4 -97 -7 -100 0
-54 -94 -4 -97 -55 -100 0
-54 -94 -4 -7 -55 -100 0
-54 -94 -97 -7 -55 -100 0
-54 -4 -97 -7 -55 -100 0
-54 1 49 94 4 97 0
-54 1 49 94 4 7 0
-54 1 49 94 4 55 0
-54 1 49 94 4 100 0
-54 1 49 94 97 7 0
-54 1 49 94 97 55 0
-54 1 49 94 97 100 0
-54 1 49 94 7 55 0
-54 1 49 94 7 100 0
-54 1 49 94 55 100 0
-54 1 49 4 97 7 0
-54 1 49 4 97 55 0
-54 1 49 4 97 100 0
-54 1 49 4 7 55 0
-54 1 49 4 7 100 0
-54 1 49 4 55 100 0
-54 1 49 97 7 55 0
-54 1 49 97 7 100 0
-54 1 49 97 55 100 0
-54 1 49 7 55 100 0
-54 1 94 4 97 7 0
-54 1 94 4 97 55 0
-54 1 94 4 97 100 0
-54 1 94 4 7 55 0
-54 1 94 4 7 100 0
-54 1 94 4 55 100 0
-54 1 94 97 7 55 0
-54 1 94 97 7 100 0
-54 1 94 97 55 100 0
-54 1 94 7 55 100 0
-54 1 4 97 7 55 0
-54 1 4 97 7 100 0
-54 1 4 97 55 100 0
-54 1 4 7 55 100 0
-54 1 97 7 55 100 0
-54 49 94 4 97 7 0
-54 49 94 4 97 55 0
-54 49 94 4 97 100 0
-54 49 94 4 7 55 0
-54 49 94 4 7 100 0
-54 49 94 4 55 100 0
-54 49 94 97 7 55 0
-54 49 94 97 7 100 0
-54 49 94 97 55 100 0
-54 49 94 7 55 100 0
-54 49 4 97 7 55 0
-54 49 4 97 7 100 0
-54 49 4 97 55 100 0
-54 49 4 7 55 100 0
-54 49 97 7 55 100 0
-54 94 4 97 7 55 0
-54 94 4 97 7 100 0
-54 94 4 97 55 100 0
-54 94 4 7 55 100 0
-54 94 97 7 55 100 0
-54 4 97 7 55 100 0
-55 -56 0
-55 -57 0
-56 -57 0
-55 -5 -53 -98 0
-55 -5 -53 -8 0
-55 -5 -53 -101 0
-55 -5 -53 -11 0
-55 -5 -53 -59 0
-55 -5 -53 -104 0
-55 -5 -98 -8 0
-55 -5 -98 -101 0
-55 -5 -98 -11 0
-55 -5 -98 -59 0
-55 -5 -98 -104 0
-55 -5 -8 -101 0
-55 -5 -8 -11 0
-55 -5 -8 -59 0
-55 -5 -8 -104 0
-55 -5 -101 -11 0
-55 -5 -101 -59 0
-55 -5 -101 -104 0
-55 -5 -11 -59 0
-55 -5 -11 -104 0
-55 -5 -59 -104 0
-55 -53 -98 -8 0
-55 -53 -98 -101 0
-55 -53 -98 -11 0
-55 -53 -98 -59 0
-55 -53 -98 -104 0
-55 -53 -8 -101 0
-55 -53 -8 -11 0
-55 -53 -8 -59 0
-55 -53 -8 -104 0
-55 -53 -101 -11 0
-55 -53 -101 -59 0
-55 -53 -101 -104 0
-55 -53 -11 -59 0
-55 -53 -11 -104 0
-55 -53 -59 -104 0
-55 -98 -8 -101 0
-55 -98 -8 -11 0
-55 -98 -8 -59 0
-55 -98 -8 -104 0
-55 -98 -101 -11 0
-55 -98 -101 -59 0
-55 -98 -101 -104 0
-55 -98 -11 -59 0
-55 -98 -11 -104 0
-55 -98 -59 -104 0
-55 -8 -101 -11 0
-55 -8 -101 -59 0
-55 -8 -101 -104 0
-55 -8 -11 -59 0
-55 -8 -11 -104 0
-55 -8 -59 -104 0
-55 -101 -11 -59 0
-55 -101 -11 -104 0
-55 -101 -59 -104 0
-55 -11 -59 -104 0
-55 5 53 98 8 101 11 59 0
-55 5 53 98 8 101 11 104 0
-55 5 53 98 8 101 59 104 0
-55 5 53 98 8 11 59 104 0
-55 5 53 98 101 11 59 104 0
-55 5 53 8 101 11 59 104 0
-55 5 98 8 101 11 59 104 0
-55 53 98 8 101 11 59 104 0
-56 -6 -54 -99 -9 0
-56 -6 -54 -99 -102 0
-56 -6 -54 -99 -12 0
-56 -6 -54 -99 -60 0
-56 -6 -54 -99 -105 0
-56 -6 -54 -9 -102 0
-56 -6 -54 -9 -12 0
-56 -6 -54 -9 -60 0
-56 -6 -54 -9 -105 0
-56 -6 -54 -102 -12 0
-56 -6 -54 -102 -60 0
-56 -6 -54 -102 -105 0
-56 -6 -54 -12 -60 0
-56 -6 -54 -12 -105 0
-56 -6 -54 -60 -105 0
-56 -6 -99 -9 -102 0
-56 -6 -99 -9 -12 0
-56 -6 -99 -9 -60 0
-56 -6 -99 -9 -105 0
-56 -6 -99 -102 -12 0
-56 -6 -99 -102 -60 0
-56 -6 -99 -102 -105 0
-56 -6 -99 -12 -60 0
-56 -6 -99 -12 -105 0
-56 -6 -99 -60 -105 0
-56 -6 -9 -102 -12 0
-56 -6 -9 -102 -60 0
-56 -6 -9 -102 -105 0
-56 -6 -9 -12 -60 0
-56 -6 -9 -12 -105 0
-56 -6 -9 -60 -105 0
-56 -6 -102 -12 -60 0
-56 -6 -102 -12 -105 0
-56 -6 -102 -60 -105 0
-56 -6 -12 -60 -105 0
-56 -54 -99 -9 -102 0
-56 -54 -99 -9 -12 0
-56 -54 -99 -9 -60 0
-56 -54 -99 -9 -105 0
-56 -54 -99 -102 -12 0
-56 -54 -99 -102 -60 0
-56 -54 -99 -102 -105 0
-56 -54 -99 -12 -60 0
-56 -54 -99 -12 -105 0
-56 -54 -99 -60 -105 0
-56 -54 -9 -102 -12 0
-56 -54 -9 -102 -60 0
-56 -54 -9 -102 -105 0
-56 -54 -9 -12 -60 0
-56 -54 -9 -12 -105 0
-56 -54 -9 -60 -105 0
-56 -54 -102 -12 -60 0
-56 -54 -102 -12 -105 0
-56 -54 -102 -60 -105 0
-56 -54 -12 -60 -105 0
-56 -99 -9 -102 -12 0
-56 -99 -9 -102 -60 0
-56 -99 -9 -102 -105 0
-56 -99 -9 -12 -60 0
-56 -99 -9 -12 -105 0
-56 -99 -9 -60 -105 0
-56 -99 -102 -12 -60 0
-56 -99 -102 -12 -105 0
-56 -99 -102 -60 -105 0
-56 -99 -12 -60 -105 0
-56 -9 -102 -12 -60 0
-56 -9 -102 -12 -105 0
-56 -9 -102 -60 -105 0
-56 -9 -12 -60 -105 0
-56 -102 -12 -60 -105 0
-56 6 54 99 9 102 12 0
-56 6 54 99 9 102 60 0
-56 6 54 99 9 102 105 0
-56 6 54 99 9 12 60 0
-56 6 54 99 9 12 105 0
-56 6 54 99 9 60 105 0
-56 6 54 99 102 12 60 0
-56 6 54 99 102 12 105 0
-56 6 54 99 102 60 105 0
-56 6 54 99 12 60 105 0
-56 6 54 9 102 12 60 0
-56 6 54 9 102 12 105 0
-56 6 54 9 102 60 105 0
-56 6 54 9 12 60 105 0
-56 6 54 102 12 60 105 0
-56 6 99 9 102 12 60 0
-56 6 99 9 102 12 105 0
-56 6 99 9 102 60 105 0
-56 6 99 9 12 60 105 0
-56 6 99 102 12 60 105 0
-56 6 9 102 12 60 105 0
-56 54 99 9 102 12 60 0
-56 54 99 9 102 12 105 0
-56 54 99 9 102 60 105 0
-56 54 99 9 12 60 105 0
-56 54 99 102 12 60 105 0
-56 54 9 102 12 60 105 0
-56 99 9 102 12 60 105 0
-57 -4 -52 -97 -7 -100 0
-57 -4 -52 -97 -7 -10 0
-57 -4 -52 -97 -7 -58 0
-57 -4 -52 -97 -7 -103 0
-57 -4 -52 -97 -100 -10 0
-57 -4 -52 -97 -100 -58 0
-57 -4 -52 -97 -100 -103 0
-57 -4 -52 -97 -10 -58 0
-57 -4 -52 -97 -10 -103 0
-57 -4 -52 -97 -58 -103 0
-57 -4 -52 -7 -100 -10 0
-57 -4 -52 -7 -100 -58 0
-57 -4 -52 -7 -100 -103 0
-57 -4 -52 -7 -10 -58 0
-57 -4 -52 -7 -10 -103 0
-57 -4 -52 -7 -58 -103 0
-57 -4 -52 -100 -10 -58 0
-57 -4 -52 -100 -10 -103 0
-57 -4 -52 -100 -58 -103 0
-57 -4 -52 -10 -58 -103 0
-57 -4 -97 -7 -100 -10 0
-57 -4 -97 -7 -100 -58 0
-57 -4 -97 -7 -100 -103 0
-57 -4 -97 -7 -10 -58 0
-57 -4 -97 -7 -10 -103 0
-57 -4 -97 -7 -58 -103 0
-57 -4 -97 -100 -10 -58 0
-57 -4 -97 -100 -10 -103 0
-57 -4 -97 -100 -58 -103 0
-57 -4 -97 -10 -58 -103 0
-57 -4 -7 -100 -10 -58 0
-57 -4 -7 -100 -10 -103 0
-57 -4 -7 -100 -58 -103 0
-57 -4 -7 -10 -58 -103 0
-57 -4 -100 -10 -58 -103 0
-57 -52 -97 -7 -100 -10 0
-57 -52 -97 -7 -100 -58 0
-57 -52 -97 -7 -100 -103 0
-57 -52 -97 -7 -10 -58 0
-57 -52 -97 -7 -10 -103 0
-57 -52 -97 -7 -58 -103 0
-57 -52 -97 -100 -10 -58 0
-57 -52 -97 -100 -10 -103 0
-57 -52 -97 -100 -58 -103 0
-57 -52 -97 -10 -58 -103 0
-57 -52 -7 -100 -10 -58 0
-57 -52 -7 -100 -10 -103 0
-57 -52 -7 -100 -58 -103 0
-57 -52 -7 -10 -58 -103 0
-57 -52 -100 -10 -58 -103 0
-57 -97 -7 -100 -10 -58 0
-57 -97 -7 -100 -10 -103 0
-57 -97 -7 -100 -58 -103 0
-57 -97 -7 -10 -58 -103 0
-57 -97 -100 -10 -58 -103 0
-57 -7 -100 -10 -58 -103 0
-57 4 52 97 7 100 0
-57 4 52 97 7 10 0
-57 4 52 97 7 58 0
-57 4 52 97 7 103 0
-57 4 52 97 100 10 0
-57 4 52 97 100 58 0
-57 4 52 97 100 103 0
-57 4 52 97 10 58 0
-57 4 52 97 10 103 0
-57 4 52 97 58 103 0
-57 4 52 7 100 10 0
-57 4 52 7 100 58 0
-57 4 52 7 100 103 0
-57 4 52 7 10 58 0
-57 4 52 7 10 103 0
-57 4 52 7 58 103 0
-57 4 52 100 10 58 0
-57 4 52 100 10 103 0
-57 4 52 100 58 103 0
-57 4 52 10 58 103 0
-57 4 97 7 100 10 0
-57 4 97 7 100 58 0
-57 4 97 7 100 103 0
-57 4 97 7 10 58 0
-57 4 97 7 10 103 0
-57 4 97 7 58 103 0
-57 4 97 100 10 58 0
-57 4 97 100 10 103 0
-57 4 97 100 58 103 0
-57 4 97 10 58 103 0
-57 4 7 100 10 58 0
-57 4 7 100 10 103 0
-57 4 7 100 58 103 0
-57 4 7 10 58 103 0
-57 4 100 10 58 103 0
-57 52 97 7 100 10 0
-57 52 97 7 100 58 0
-57 52 97 7 100 103 0
-57 52 97 7 10 58 0
-57 52 97 7 10 103 0
-57 52 97 7 58 103 0
-57 52 97 100 10 58 0
-57 52 97 100 10 103 0
-57 52 97 100 58 103 0
-57 52 97 10 58 103 0
-57 52 7 100 10 58 0
-57 52 7 100 10 103 0
-57 52 7 100 58 103 0
-57 52 7 10 58 103 0
-57 52 100 10 58 103 0
-57 97 7 100 10 58 0
-57 97 7 100 10 103 0
-57 97 7 100 58 103 0
-57 97 7 10 58 103 0
-57 97 100 10 58 103 0
-57 7 100 10 58 103 0
-58 -59 0
-58 -60 0
-59 -60 0
-58 -8 -56 -101 0
-58 -8 -56 -11 0
-58 -8 -56 -104 0
-58 -8 -56 -14 0
-58 -8 -56 -62 0
-58 -8 -56 -107 0
-58 -8 -101 -11 0
-58 -8 -101 -104 0
-58 -8 -101 -14 0
-58 -8 -101 -62 0
-58 -8 -101 -107 0
-58 -8 -11 -104 0
-58 -8 -11 -14 0
-58 -8 -11 -62 0
-58 -8 -11 -107 0
-58 -8 -104 -14 0
-58 -8 -104 -62 0
-58 -8 -104 -107 0
-58 -8 -14 -62 0
-58 -8 -14 -107 0
-58 -8 -62 -107 0
-58 -56 -101 -11 0
-58 -56 -101 -104 0
-58 -56 -101 -14 0
-58 -56 -101 -62 0
-58 -56 -101 -107 0
-58 -56 -11 -104 0
-58 -56 -11 -14 0
-58 -56 -11 -62 0
-58 -56 -11 -107 0
-58 -56 -104 -14 0
-58 -56 -104 -62 0
-58 -56 -104 -107 0
-58 -56 -14 -62 0
-58 -56 -14 -107 0
-58 -56 -62 -107 0
-58 -101 -11 -104 0
-58 -101 -11 -14 0
-58 -101 -11 -62 0
-58 -101 -11 -107 0
-58 -101 -104 -14 0
-58 -101 -104 -62 0
-58 -101 -104 -107 0
-58 -101 -14 -62 0
-58 -101 -14 -107 0
-58 -101 -62 -107 0
-58 -11 -104 -14 0
-58 -11 -104 -62 0
-58 -11 -104 -107 0
-58 -11 -14 -62 0
-58 -11 -14 -107 0
-58 -11 -62 -107 0
-58 -104 -14 -62 0
-58 -104 -14 -107 0
-58 -104 -62 -107 0
-58 -14 -62 -107 0
-58 8 56 101 11 104 14 62 0
-58 8 56 101 11 104 14 107 0
-58 8 56 101 11 104 62 107 0
-58 8 56 101 11 14 62 107 0
-58 8 56 101 104 14 62 107 0
-58 8 56 11 104 14 62 107 0
-58 8 101 11 104 14 62 107 0
-58 56 101 11 104 14 62 107 0
-59 -9 -57 -102 -12 0
-59 -9 -57 -102 -105 0
-59 -9 -57 -102 -15 0
-59 -9 -57 -102 -63 0
-59 -9 -57 -102 -108 0
-59 -9 -57 -12 -105 0
-59 -9 -57 -12 -15 0
-59 -9 -57 -12 -63 0
-59 -9 -57 -12 -108 0
-59 -9 -57 -105 -15 0
-59 -9 -57 -105 -63 0
-59 -9 -57 -105 -108 0
-59 -9 -57 -15 -63 0
-59 -9 -57 -15 -108 0
-59 -9 -57 -63 -108 0
-59 -9 -102 -12 -105 0
-59 -9 -102 -12 -15 0
-59 -9 -102 -12 -63 0
-59 -9 -102 -12 -108 0
-59 -9 -102 -105 -15 0
-59 -9 -102 -105 -63 0
-59 -9 -102 -105 -108 0
-59 -9 -102 -15 -63 0
-59 -9 -102 -15 -108 0
-59 -9 -102 -63 -108 0
-59 -9 -12 -105 -15 0
-59 -9 -12 -105 -63 0
-59 -9 -12 -105 -108 0
-59 -9 -12 -15 -63 0
-59 -9 -12 -15 -108 0
-59 -9 -12 -63 -108 0
-59 -9 -105 -15 -63 0
-59 -9 -105 -15 -108 0
-59 -9 -105 -63 -108 0
-59 -9 -15 -63 -108 0
-59 -57 -102 -12 -105 0
-59 -57 -102 -12 -15 0
-59 -57 -102 -12 -63 0
-59 -57 -102 -12 -108 0
-59 -57 -102 -105 -15 0
-59 -57 -102 -105 -63 0
-59 -57 -102 -105 -108 0
-59 -57 -102 -15 -63 0
-59 -57 -102 -15 -108 0
-59 -57 -102 -63 -108 0
-59 -57 -12 -105 -15 0
-59 -57 -12 -105 -63 0
-59 -57 -12 -105 -108 0
-59 -57 -12 -15 -63 0
-59 -57 -12 -15 -108 0
-59 -57 -12 -63 -108 0
-59 -57 -105 -15 -63 0
-59 -57 -105 -15 -108 0
-59 -57 -105 -63 -108 0
-59 -57 -15 -63 -108 0
-59 -102 -12 -105 -15 0
-59 -102 -12 -105 -63 0
-59 -102 -12 -105 -108 0
-59 -102 -12 -15 -63 0
-59 -102 -12 -15 -108 0
-59 -102 -12 -63 -108 0
-59 -102 -105 -15 -63 0
-59 -102 -105 -15 -108 0
-59 -102 -105 -63 -108 0
-59 -102 -15 -63 -108 0
-59 -12 -105 -15 -63 0
-59 -12 -105 -15 -108 0
-59 -12 -105 -63 -108 0
-59 -12 -15 -63 -108 0
-59 -105 -15 -63 -108 0
-59 9 57 102 12 105 15 0
-59 9 57 102 12 105 63 0
-59 9 57 102 12 105 108 0
-59 9 57 102 12 15 63 0
-59 9 57 102 12 15 108 0
-59 9 57 102 12 63 108 0
-59 9 57 102 105 15 63 0
-59 9 57 102 105 15 108 0
-59 9 57 102 105 63 108 0
-59 9 57 102 15 63 108 0
-59 9 57 12 105 15 63 0
-59 9 57 12 105 15 108 0
-59 9 57 12 105 63 108 0
-59 9 57 12 15 63 108 0
-59 9 57 105 15 63 108 0
-59 9 102 12 105 15 63 0
-59 9 102 12 105 15 108 0
-59 9 102 12 105 63 108 0
-59 9 102 12 15 63 108 0
-59 9 102 105 15 63 108 0
-59 9 12 105 15 63 108 0
-59 57 102 12 105 15 63 0
-59 57 102 12 105 15 108 0
-59 57 102 12 105 63 108 0
-59 57 102 12 15 63 108 0
-59 57 102 105 15 63 108 0
-59 57 12 105 15 63 108 0
-59 102 12 105 15 63 108 0
-60 -7 -55 -100 -10 -103 0
-60 -7 -55 -100 -10 -13 0
-60 -7 -55 -100 -10 -61 0
-60 -7 -55 -100 -10 -106 0
-60 -7 -55 -100 -103 -13 0
-60 -7 -55 -100 -103 -61 0
-60 -7 -55 -100 -103 -106 0
-60 -7 -55 -100 -13 -61 0
-60 -7 -55 -100 -13 -106 0
-60 -7 -55 -100 -61 -106 0
-60 -7 -55 -10 -103 -13 0
-60 -7 -55 -10 -103 -61 0
-60 -7 -55 -10 -103 -106 0
-60 -7 -55 -10 -13 -61 0
-60 -7 -55 -10 -13 -106 0
-60 -7 -55 -10 -61 -106 0
-60 -7 -55 -103 -13 -61 0
-60 -7 -55 -103 -13 -106 0
-60 -7 -55 -103 -61 -106 0
-60 -7 -55 -13 -61 -106 0
-60 -7 -100 -10 -103 -13 0
-60 -7 -100 -10 -103 -61 0
-60 -7 -100 -10 -103 -106 0
-60 -7 -100 -10 -13 -61 0
-60 -7 -100 -10 -13 -106 0
-60 -7 -100 -10 -61 -106 0
-60 -7 -100 -103 -13 -61 0
-60 -7 -100 -103 -13 -106 0
-60 -7 -100 -103 -61 -106 0
-60 -7 -100 -13 -61 -106 0
-60 -7 -10 -103 -13 -61 0
-60 -7 -10 -103 -13 -106 0
-60 -7 -10 -103 -61 -106 0
-60 -7 -10 -13 -61 -106 0
-60 -7 -103 -13 -61 -106 0
-60 -55 -100 -10 -103 -13 0
-60 -55 -100 -10 -103 -61 0
-60 -55 -100 -10 -103 -106 0
-60 -55 -100 -10 -13 -61 0
-60 -55 -100 -10 -13 -106 0
-60 -55 -100 -10 -61 -106 0
-60 -55 -100 -103 -13 -61 0
-60 -55 -100 -103 -13 -106 0
-60 -55 -100 -103 -61 -106 0
-60 -55 -100 -13 -61 -106 0
-60 -55 -10 -103 -13 -61 0
-60 -55 -10 -103 -13 -106 0
-60 -55 -10 -103 -61 -106 0
-60 -55 -10 -13 -61 -106 0
-60 -55 -103 -13 -61 -106 0
-60 -100 -10 -103 -13 -61 0
-60 -100 -10 -103 -13 -106 0
-60 -100 -10 -103 -61 -106 0
-60 -100 -10 -13 -61 -106 0
-60 -100 -103 -13 -61 -106 0
-60 -10 -103 -13 -61 -106 0
-60 7 55 100 10 103 0
-60 7 55 100 10 13 0
-60 7 55 100 10 61 0
-60 7 55 100 10 106 0
-60 7 55 100 103 13 0
-60 7 55 100 103 61 0
-60 7 55 100 103 106 0
-60 7 55 100 13 61 0
-60 7 55 100 13 106 0
-60 7 55 100 61 106 0
-60 7 55 10 103 13 0
-60 7 55 10 103 61 0
-60 7 55 10 103 106 0
-60 7 55 10 13 61 0
-60 7 55 10 13 106 0
-60 7 55 10 61 106 0
-60 7 55 103 13 61 0
-60 7 55 103 13 106 0
-60 7 55 103 61 106 0
-60 7 55 13 61 106 0
-60 7 100 10 103 13 0
-60 7 100 10 103 61 0
-60 7 100 10 103 106 0
-60 7 100 10 13 61 0
-60 7 100 10 13 106 0
-60 7 100 10 61 106 0
-60 7 100 103 13 61 0
-60 7 100 103 13 106 0
-60 7 100 103 61 106 0
-60 7 100 13 61 106 0
-60 7 10 103 13 61 0
-60 7 10 103 13 106 0
-60 7 10 103 61 106 0
-60 7 10 13 61 106 0
-60 7 103 13 61 106 0
-60 55 100 10 103 13 0
-60 55 100 10 103 61 0
-60 55 100 10 103 106 0
-60 55 100 10 13 61 0
-60 55 100 10 13 106 0
-60 55 100 10 61 106 0
-60 55 100 103 13 61 0
-60 55 100 103 13 106 0
-60 55 100 103 61 106 0
-60 55 100 13 61 106 0
-60 55 10 103 13 61 0
-60 55 10 103 13 106 0
-60 55 10 103 61 106 0
-60 55 10 13 61 106 0
-60 55 103 13 61 106 0
-60 100 10 103 13 61 0
-60 100 10 103 13 106 0
-60 100 10 103 61 106 0
-60 100 10 13 61 106 0
-60 100 103 13 61 106 0
-60 10 103 13 61 106 0
-61 -62 0
-61 -63 0
-62 -63 0
-61 -11 -59 -104 0
-61 -11 -59 -14 0
-61 -11 -59 -107 0
-61 -11 -59 -17 0
-61 -11 -59 -65 0
-61 -11 -59 -110 0
-61 -11 -104 -14 0
-61 -11 -104 -107 0
-61 -11 -104 -17 0
-61 -11 -104 -65 0
-61 -11 -104 -110 0
-61 -11 -14 -107 0
-61 -11 -14 -17 0
-61 -11 -14 -65 0
-61 -11 -14 -110 0
-61 -11 -107 -17 0
-61 -11 -107 -65 0
-61 -11 -107 -110 0
-61 -11 -17 -65 0
-61 -11 -17 -110 0
-61 -11 -65 -110 0
-61 -59 -104 -14 0
-61 -59 -104 -107 0
-61 -59 -104 -17 0
-61 -59 -104 -65 0
-61 -59 -104 -110 0
-61 -59 -14 -107 0
-61 -59 -14 -17 0
-61 -59 -14 -65 0
-61 -59 -14 -110 0
-61 -59 -107 -17 0
-61 -59 -107 -65 0
-61 -59 -107 -110 0
-61 -59 -17 -65 0
-61 -59 -17 -110 0
-61 -59 -65 -110 0
-61 -104 -14 -107 0
-61 -104 -14 -17 0
-61 -104 -14 -65 0
-61 -104 -14 -110 0
-61 -104 -107 -17 0
-61 -104 -107 -65 0
-61 -104 -107 -110 0
-61 -104 -17 -65 0
-61 -104 -17 -110 0
-61 -104 -65 -110 0
-61 -14 -107 -17 0
-61 -14 -107 -65 0
-61 -14 -107 -110 0
-61 -14 -17 -65 0
-61 -14 -17 -110 0
-61 -14 -65 -110 0
-61 -107 -17 -65 0
-61 -107 -17 -110 0
-61 -107 -65 -110 0
-61 -17 -65 -110 0
-61 11 59 104 14 107 17 65 0
-61 11 59 104 14 107 17 110 0
-61 11 59 104 14 107 65 110 0
-61 11 59 104 14 17 65 110 0
-61 11 59 104 107 17 65 110 0
-61 11 59 14 107 17 65 110 0
-61 11 104 14 107 17 65 110 0
-61 59 104 14 107 17 65 110 0
-62 -12 -60 -105 -15 0
-62 -12 -60 -105 -108 0
-62 -12 -60 -105 -18 0
-62 -12 -60 -105 -66 0
-62 -12 -60 -105 -111 0
-62 -12 -60 -15 -108 0
-62 -12 -60 -15 -18 0
-62 -12 -60 -15 -66 0
-62 -12 -60 -15 -111 0
-62 -12 -60 -108 -18 0
-62 -12 -60 -108 -66 0
-62 -12 -60 -108 -111 0
-62 -12 -60 -18 -66 0
-62 -12 -60 -18 -111 0
-62 -12 -60 -66 -111 0
-62 -12 -105 -15 -108 0
-62 -12 -105 -15 -18 0
-62 -12 -105 -15 -66 0
-62 -12 -105 -15 -111 0
-62 -12 -105 -108 -18 0
-62 -12 -105 -108 -66 0
-62 -12 -105 -108 -111 0
-62 -12 -105 -18 -66 0
-62 -12 -105 -18 -111 0
-62 -12 -105 -66 -111 0
-62 -12 -15 -108 -18 0
-62 -12 -15 -108 -66 0
-62 -12 -15 -108 -111 0
-62 -12 -15 -18 -66 0
-62 -12 -15 -18 -111 0
-62 -12 -15 -66 -111 0
-62 -12 -108 -18 -66 0
-62 -12 -108 -18 -111 0
-62 -12 -108 -66 -111 0
-62 -12 -18 -66 -111 0
-62 -60 -105 -15 -108 0
-62 -60 -105 -15 -18 0
-62 -60 -105 -15 -66 0
-62 -60 -105 -15 -111 0
-62 -60 -105 -108 -18 0
-62 -60 -105 -108 -66 0
-62 -60 -105 -108 -111 0
-62 -60 -105 -18 -66 0
-62 -60 -105 -18 -111 0
-62 -60 -105 -66 -111 0
-62 -60 -15 -108 -18 0
-62 -60 -15 -108 -66 0
-62 -60 -15 -108 -111 0
-62 -60 -15 -18 -66 0
-62 -60 -15 -18 -111 0
-62 -60 -15 -66 -111 0
-62 -60 -108 -18 -66 0
-62 -60 -108 -18 -111 0
-62 -60 -108 -66 -111 0
-62 -60 -18 -66 -111 0
-62 -105 -15 -108 -18 0
-62 -105 -15 -108 -66 0
-62 -105 -15 -108 -111 0
-62 -105 -15 -18 -66 0
-62 -105 -15 -18 -111 0
-62 -105 -15 -66 -111 0
-62 -105 -108 -18 -66 0
-62 -105 -108 -18 -111 0
-62 -105 -108 -66 -111 0
-62 -105 -18 -66 -111 0
-62 -15 -108 -18 -66 0
-62 -15 -108 -18 -111 0
-62 -15 -108 -66 -111 0
-62 -15 -18 -66 -111 0
-62 -108 -18 -66 -111 0
-62 12 60 105 15 108 18 0
-62 12 60 105 15 108 66 0
-62 12 60 105 15 108 111 0
-62 12 60 105 15 18 66 0
-62 12 60 105 15 18 111 0
-62 12 60 105 15 66 111 0
-62 12 60 105 108 18 66 0
-62 12 60 105 108 18 111 0
-62 12 60 105 108 66 111 0
-62 12 60 105 18 66 111 0
-62 12 60 15 108 18 66 0
-62 12 60 15 108 18 111 0
-62 12 60 15 108 66 111 0
-62 12 60 15 18 66 111 0
-62 12 60 108 18 66 111 0
-62 12 105 15 108 18 66 0
-62 12 105 15 108 18 111 0
-62 12 105 15 108 66 111 0
-62 12 105 15 18 66 111 0
-62 12 105 108 18 66 111 0
-62 12 15 108 18 66 111 0
-62 60 105 15 108 18 66 0
-62 60 105 15 108 18 111 0
-62 60 105 15 108 66 111 0
-62 60 105 15 18 66 111 0
-62 60 105 108 18 66 111 0
-62 60 15 108 18 66 111 0
-62 105 15 108 18 66 111 0
-63 -10 -58 -103 -13 -106 0
-63 -10 -58 -103 -13 -16 0
-63 -10 -58 -103 -13 -64 0
-63 -10 -58 -103 -13 -109 0
-63 -10 -58 -103 -106 -16 0
-63 -10 -58 -103 -106 -64 0
-63 -10 -58 -103 -106 -109 0
-63 -10 -58 -103 -16 -64 0
-63 -10 -58 -103 -16 -109 0
-63 -10 -58 -103 -64 -109 0
-63 -10 -58 -13 -106 -16 0
-63 -10 -58 -13 -106 -64 0
-63 -10 -58 -13 -106 -109 0
-63 -10 -58 -13 -16 -64 0
-63 -10 -58 -13 -16 -109 0
-63 -10 -58 -13 -64 -109 0
-63 -10 -58 -106 -16 -64 0
-63 -10 -58 -106 -16 -109 0
-63 -10 -58 -106 -64 -109 0
-63 -10 -58 -16 -64 -109 0
-63 -10 -103 -13 -106 -16 0
-63 -10 -103 -13 -106 -64 0
-63 -10 -103 -13 -106 -109 0
-63 -10 -103 -13 -16 -64 0
-63 -10 -103 -13 -16 -109 0
-63 -10 -103 -13 -64 -109 0
-63 -10 -103 -106 -16 -64 0
-63 -10 -103 -106 -16 -109 0
-63 -10 -103 -106 -64 -109 0
-63 -10 -103 -16 -64 -109 0
-63 -10 -13 -106 -16 -64 0
-63 -10 -13 -106 -16 -109 0
-63 -10 -13 -106 -64 -109 0
-63 -10 -13 -16 -64 -109 0
-63 -10 -106 -16 -64 -109 0
-63 -58 -103 -13 -106 -16 0
-63 -58 -103 -13 -106 -64 0
-63 -58 -103 -13 -106 -109 0
-63 -58 -103 -13 -16 -64 0
-63 -58 -103 -13 -16 -109 0
-63 -58 -103 -13 -64 -109 0
-63 -58 -103 -106 -16 -64 0
-63 -58 -103 -106 -16 -109 0
-63 -58 -103 -106 -64 -109 0
-63 -58 -103 -16 -64 -109 0
-63 -58 -13 -106 -16 -64 0
-63 -58 -13 -106 -16 -109 0
-63 -58 -13 -106 -64 -109 0
-63 -58 -13 -16 -64 -109 0
-63 -58 -106 -16 -64 -109 0
-63 -103 -13 -106 -16 -64 0
-63 -103 -13 -106 -16 -109 0
-63 -103 -13 -106 -64 -109 0
-63 -103 -13 -16 -64 -109 0
-63 -103 -106 -16 -64 -109 0
-63 -13 -106 -16 -64 -109 0
-63 10 58 103 13 106 0
-63 10 58 103 13 16 0
-63 10 58 103 13 64 0
-63 10 58 103 13 109 0
-63 10 58 103 106 16 0
-63 10 58 103 106 64 0
-63 10 58 103 106 109 0
-63 10 58 103 16 64 0
-63 10 58 103 16 109 0
-63 10 58 103 64 109 0
-63 10 58 13 106 16 0
-63 10 58 13 106 64 0
-63 10 58 13 106 109 0
-63 10 58 13 16 64 0
-63 10 58 13 16 109 0
-63 10 58 13 64 109 0
-63 10 58 106 16 64 0
-63 10 58 106 16 109 0
-63 10 58 106 64 109 0
-63 10 58 16 64 109 0
-63 10 103 13 106 16 0
-63 10 103 13 106 64 0
-63 10 103 13 106 109 0
-63 10 103 13 16 64 0
-63 10 103 13 16 109 0
-63 10 103 13 64 109 0
-63 10 103 106 16 64 0
-63 10 103 106 16 109 0
-63 10 103 106 64 109 0
-63 10 103 16 64 109 0
-63 10 13 106 16 64 0
-63 10 13 106 16 109 0
-63 10 13 106 64 109 0
-63 10 13 16 64 109 0
-63 10 106 16 64 109 0
-63 58 103 13 106 16 0
-63 58 103 13 106 64 0
-63 58 103 13 106 109 0
-63 58 103 13 16 64 0
-63 58 103 13 16 109 0
-63 58 103 13 64 109 0
-63 58 103 106 16 64 0
-63 58 103 106 16 109 0
-63 58 103 106 64 109 0
-63 58 103 16 64 109 0
-63 58 13 106 16 64 0
-63 58 13 106 16 109 0
-63 58 13 106 64 109 0
-63 58 13 16 64 109 0
-63 58 106 16 64 109 0
-63 103 13 106 16 64 0
-63 103 13 106 16 109 0
-63 103 13 106 64 109 0
-63 103 13 16 64 109 0
-63 103 106 16 64 109 0
-63 13 106 16 64 109 0
-64 -65 0
-64 -66 0
-65 -66 0
-64 -14 -62 -107 0
-64 -14 -62 -17 0
-64 -14 -62 -110 0
-64 -14 -62 -20 0
-64 -14 -62 -68 0
-64 -14 -62 -113 0
-64 -14 -107 -17 0
-64 -14 -107 -110 0
-64 -14 -107 -20 0
-64 -14 -107 -68 0
-64 -14 -107 -113 0
-64 -14 -17 -110 0
-64 -14 -17 -20 0
-64 -14 -17 -68 0
-64 -14 -17 -113 0
-64 -14 -110 -20 0
-64 -14 -110 -68 0
-64 -14 -110 -113 0
-64 -14 -20 -68 0
-64 -14 -20 -113 0
-64 -14 -68 -113 0
-64 -62 -107 -17 0
-64 -62 -107 -110 0
-64 -62 -107 -20 0
-64 -62 -107 -68 0
-64 -62 -107 -113 0
-64 -62 -17 -110 0
-64 -62 -17 -20 0
-64 -62 -17 -68 0
-64 -62 -17 -113 0
-64 -62 -110 -20 0
-64 -62 -110 -68 0
-64 -62 -110 -113 0
-64 -62 -20 -68 0
-64 -62 -20 -113 0
-64 -62 -68 -113 0
-64 -107 -17 -110 0
-64 -107 -17 -20 0
-64 -107 -17 -68 0
-64 -107 -17 -113 0
-64 -107 -110 -20 0
-64 -107 -110 -68 0
-64 -107 -110 -113 0
-64 -107 -20 -68 0
-64 -107 -20 -113 0
-64 -107 -68 -113 0
-64 -17 -110 -20 0
-64 -17 -110 -68 0
-64 -17 -110 -113 0
-64 -17 -20 -68 0
-64 -17 -20 -113 0
-64 -17 -68 -113 0
-64 -110 -20 -68 0
-64 -110 -20 -113 0
-64 -110 -68 -113 0
-64 -20 -68 -113 0
-64 14 62 107 17 110 20 68 0
-64 14 62 107 17 110 20 113 0
-64 14 62 107 17 110 68 113 0
-64 14 62 107 17 20 68 113 0
-64 14 62 107 110 20 68 113 0
-64 14 62 17 110 20 68 113 0
-64 14 107 17 110 20 68 113 0
-64 62 107 17 110 20 68 113 0
-65 -15 -63 -108 -18 0
-65 -15 -63 -108 -111 0
-65 -15 -63 -108 -21 0
-65 -15 -63 -108 -69 0
-65 -15 -63 -108 -114 0
-65 -15 -63 -18 -111 0
-65 -15 -63 -18 -21 0
-65 -15 -63 -18 -69 0
-65 -15 -63 -18 -114 0
-65 -15 -63 -111 -21 0
-65 -15 -63 -111 -69 0
-65 -15 -63 -111 -114 0
-65 -15 -63 -21 -69 0
-65 -15 -63 -21 -114 0
-65 -15 -63 -69 -114 0
-65 -15 -108 -18 -111 0
-65 -15 -108 -18 -21 0
-65 -15 -108 -18 -69 0
-65 -15 -108 -18 -114 0
-65 -15 -108 -111 -21 0
-65 -15 -108 -111 -69 0
-65 -15 -108 -111 -114 0
-65 -15 -108 -21 -69 0
-65 -15 -108 -21 -114 0
-65 -15 -108 -69 -114 0
-65 -15 -18 -111 -21 0
-65 -15 -18 -111 -69 0
-65 -15 -18 -111 -114 0
-65 -15 -18 -21 -69 0
-65 -15 -18 -21 -114 0
-65 -15 -18 -69 -114 0
-65 -15 -111 -21 -69 0
-65 -15 -111 -21 -114 0
-65 -15 -111 -69 -114 0
-65 -15 -21 -69 -114 0
-65 -63 -108 -18 -111 0
-65 -63 -108 -18 -21 0
-65 -63 -108 -18 -69 0
-65 -63 -108 -18 -114 0
-65 -63 -108 -111 -21 0
-65 -63 -108 -111 -69 0
-65 -63 -108 -111 -114 0
-65 -63 -108 -21 -69 0
-65 -63 -108 -21 -114 0
-65 -63 -108 -69 -114 0
-65 -63 -18 -111 -21 0
-65 -63 -18 -111 -69 0
-65 -63 -18 -111 -114 0
-65 -63 -18 -21 -69 0
-65 -63 -18 -21 -114 0
-65 -63 -18 -69 -114 0
-65 -63 -111 -21 -69 0
-65 -63 -111 -21 -114 0
-65 -63 -111 -69 -114 0
-65 -63 -21 -69 -114 0
-65 -108 -18 -111 -21 0
-65 -108 -18 -111 -69 0
-65 -108 -18 -111 -114 0
-65 -108 -18 -21 -69 0
-65 -108 -18 -21 -114 0
-65 -108 -18 -69 -114 0
-65 -108 -111 -21 -69 0
-65 -108 -111 -21 -114 0
-65 -108 -111 -69 -114 0
-65 -108 -21 -69 -114 0
-65 -18 -111 -21 -69 0
-65 -18 -111 -21 -114 0
-65 -18 -111 -69 -114 0
-65 -18 -21 -69 -114 0
-65 -111 -21 -69 -114 0
-65 15 63 108 18 111 21 0
-65 15 63 108 18 111 69 0
-65 15 63 108 18 111 114 0
-65 15 63 108 18 21 69 0
-65 15 63 108 18 21 114 0
-65 15 63 108 18 69 114 0
-65 15 63 108 111 21 69 0
-65 15 63 108 111 21 114 0
-65 15 63 108 111 69 114 0
-65 15 63 108 21 69 114 0
-65 15 63 18 111 21 69 0
-65 15 63 18 111 21 114 0
-65 15 63 18 111 69 114 0
-65 15 63 18 21 69 114 0
-65 15 63 111 21 69 114 0
-65 15 108 18 111 21 69 0
-65 15 108 18 111 21 114 0
-65 15 108 18 111 69 114 0
-65 15 108 18 21 69 114 0
-65 15 108 111 21 69 114 0
-65 15 18 111 21 69 114 0
-65 63 108 18 111 21 69 0
-65 63 108 18 111 21 114 0
-65 63 108 18 111 69 114 0
-65 63 108 18 21 69 114 0
-65 63 108 111 21 69 114 0
-65 63 18 111 21 69 114 0
-65 108 18 111 21 69 114 0
-66 -13 -61 -106 -16 -109 0
-66 -13 -61 -106 -16 -19 0
-66 -13 -61 -106 -16 -67 0
-66 -13 -61 -106 -16 -112 0
-66 -13 -61 -106 -109 -19 0
-66 -13 -61 -106 -109 -67 0
-66 -13 -61 -106 -109 -112 0
-66 -13 -61 -106 -19 -67 0
-66 -13 -61 -106 -19 -112 0
-66 -13 -61 -106 -67 -112 0
-66 -13 -61 -16 -109 -19 0
-66 -13 -61 -16 -109 -67 0
-66 -13 -61 -16 -109 -112 0
-66 -13 -61 -16 -19 -67 0
-66 -13 -61 -16 -19 -112 0
-66 -13 -61 -16 -67 -112 0
-66 -13 -61 -109 -19 -67 0
-66 -13 -61 -109 -19 -112 0
-66 -13 -61 -109 -67 -112 0
-66 -13 -61 -19 -67 -112 0
-66 -13 -106 -16 -109 -19 0
-66 -13 -106 -16 -109 -67 0
-66 -13 -106 -16 -109 -112 0
-66 -13 -106 -16 -19 -67 0
-66 -13 -106 -16 -19 -112 0
-66 -13 -106 -16 -67 -112 0
-66 -13 -106 -109 -19 -67 0
-66 -13 -106 -109 -19 -112 0
-66 -13 -106 -109 -67 -112 0
-66 -13 -106 -19 -67 -112 0
-66 -13 -16 -109 -19 -67 0
-66 -13 -16 -109 -19 -112 0
-66 -13 -16 -109 -67 -112 0
-66 -13 -16 -19 -67 -112 0
-66 -13 -109 -19 -67 -112 0
-66 -61 -106 -16 -109 -19 0
-66 -61 -106 -16 -109 -67 0
-66 -61 -106 -16 -109 -112 0
-66 -61 -106 -16 -19 -67 0
-66 -61 -106 -16 -19 -112 0
-66 -61 -106 -16 -67 -112 0
-66 -61 -106 -109 -19 -67 0
-66 -61 -106 -109 -19 -112 0
-66 -61 -106 -109 -67 -112 0
-66 -61 -106 -19 -67 -112 0
-66 -61 -16 -109 -19 -67 0
-66 -61 -16 -109 -19 -112 0
-66 -61 -16 -109 -67 -112 0
-66 -61 -16 -19 -67 -112 0
-66 -61 -109 -19 -67 -112 0
-66 -106 -16 -109 -19 -67 0
-66 -106 -16 -109 -19 -112 0
-66 -106 -16 -109 -67 -112 0
-66 -106 -16 -19 -67 -112 0
-66 -106 -109 -19 -67 -112 0
-66 -16 -109 -19 -67 -112 0
-66 13 61 106 16 109 0
-66 13 61 106 16 19 0
-66 13 61 106 16 67 0
-66 13 61 106 16 112 0
-66 13 61 106 109 19 0
-66 13 61 106 109 67 0
-66 13 61 106 109 112 0
-66 13 61 106 19 67 0
-66 13 61 106 19 112 0
-66 13 61 106 67 112 0
-66 13 61 16 109 19 0
-66 13 61 16 109 67 0
-66 13 61 16 109 112 0
-66 13 61 16 19 67 0
-66 13 61 16 19 112 0
-66 13 61 16 67 112 0
-66 13 61 109 19 67 0
-66 13 61 109 19 112 0
-66 13 61 109 67 112 0
-66 13 61 19 67 112 0
-66 13 106 16 109 19 0
-66 13 106 16 109 67 0
-66 13 106 16 109 112 0
-66 13 106 16 19 67 0
-66 13 106 16 19 112 0
-66 13 106 16 67 112 0
-66 13 106 109 19 67 0
-66 13 106 109 19 112 0
-66 13 106 109 67 112 0
-66 13 106 19 67 112 0
-66 13 16 109 19 67 0
-66 13 16 109 19 112 0
-66 13 16 109 67 112 0
-66 13 16 19 67 112 0
-66 13 109 19 67 112 0
-66 61 106 16 109 19 0
-66 61 106 16 109 67 0
-66 61 106 16 109 112 0
-66 61 106 16 19 67 0
-66 61 106 16 19 112 0
-66 61 106 16 67 112 0
-66 61 106 109 19 67 0
-66 61 106 109 19 112 0
-66 61 106 109 67 112 0
-66 61 106 19 67 112 0
-66 61 16 109 19 67 0
-66 61 16 109 19 112 0
-66 61 16 109 67 112 0
-66 61 16 19 67 112 0
-66 61 109 19 67 112 0
-66 106 16 109 19 67 0
-66 106 16 109 19 112 0
-66 106 16 109 67 112 0
-66 106 16 19 67 112 0
-66 106 109 19 67 112 0
-66 16 109 19 67 112 0
-67 -68 0
-67 -69 0
-68 -69 0
-67 -17 -65 -110 0
-67 -17 -65 -20 0
-67 -17 -65 -113 0
-67 -17 -65 -23 0
-67 -17 -65 -71 0
-67 -17 -65 -116 0
-67 -17 -110 -20 0
-67 -17 -110 -113 0
-67 -17 -110 -23 0
-67 -17 -110 -71 0
-67 -17 -110 -116 0
-67 -17 -20 -113 0
-67 -17 -20 -23 0
-67 -17 -20 -71 0
-67 -17 -20 -116 0
-67 -17 -113 -23 0
-67 -17 -113 -71 0
-67 -17 -113 -116 0
-67 -17 -23 -71 0
-67 -17 -23 -116 0
-67 -17 -71 -116 0
-67 -65 -110 -20 0
-67 -65 -110 -113 0
-67 -65 -110 -23 0
-67 -65 -110 -71 0
-67 -65 -110 -116 0
-67 -65 -20 -113 0
-67 -65 -20 -23 0
-67 -65 -20 -71 0
-67 -65 -20 -116 0
-67 -65 -113 -23 0
-67 -65 -113 -71 0
-67 -65 -113 -116 0
-67 -65 -23 -71 0
-67 -65 -23 -116 0
-67 -65 -71 -116 0
-67 -110 -20 -113 0
-67 -110 -20 -23 0
-67 -110 -20 -71 0
-67 -110 -20 -116 0
-67 -110 -113 -23 0
-67 -110 -113 -71 0
-67 -110 -113 -116 0
-67 -110 -23 -71 0
-67 -110 -23 -116 0
-67 -110 -71 -116 0
-67 -20 -113 -23 0
-67 -20 -113 -71 0
-67 -20 -113 -116 0
-67 -20 -23 -71 0
-67 -20 -23 -116 0
-67 -20 -71 -116 0
-67 -113 -23 -71 0
-67 -113 -23 -116 0
-67 -113 -71 -116 0
-67 -23 -71 -116 0
-67 17 65 110 20 113 23 71 0
-67 17 65 110 20 113 23 116 0
-67 17 65 110 20 113 71 116 0
-67 17 65 110 20 23 71 116 0
-67 17 65 110 113 23 71 116 0
-67 17 65 20 113 23 71 116 0
-67 17 110 20 113 23 71 116 0
-67 65 110 20 113 23 71 116 0
-68 -18 -66 -111 -21 0
-68 -18 -66 -111 -114 0
-68 -18 -66 -111 -24 0
-68 -18 -66 -111 -72 0
-68 -18 -66 -111 -117 0
-68 -18 -66 -21 -114 0
-68 -18 -66 -21 -24 0
-68 -18 -66 -21 -72 0
-68 -18 -66 -21 -117 0
-68 -18 -66 -114 -24 0
-68 -18 -66 -114 -72 0
-68 -18 -66 -114 -117 0
-68 -18 -66 -24 -72 0
-68 -18 -66 -24 -117 0
-68 -18 -66 -72 -117 0
-68 -18 -111 -21 -114 0
-68 -18 -111 -21 -24 0
-68 -18 -111 -21 -72 0
-68 -18 -111 -21 -117 0
-68 -18 -111 -114 -24 0
-68 -18 -111 -114 -72 0
-68 -18 -111 -114 -117 0
-68 -18 -111 -24 -72 0
-68 -18 -111 -24 -117 0
-68 -18 -111 -72 -117 0
-68 -18 -21 -114 -24 0
-68 -18 -21 -114 -72 0
-68 -18 -21 -114 -117 0
-68 -18 -21 -24 -72 0
-68 -18 -21 -24 -117 0
-68 -18 -21 -72 -117 0
-68 -18 -114 -24 -72 0
-68 -18 -114 -24 -117 0
-68 -18 -114 -72 -117 0
-68 -18 -24 -72 -117 0
-68 -66 -111 -21 -114 0
-68 -66 -111 -21 -24 0
-68 -66 -111 -21 -72 0
-68 -66 -111 -21 -117 0
-68 -66 -111 -114 -24 0
-68 -66 -111 -114 -72 0
-68 -66 -111 -114 -117 0
-68 -66 -111 -24 -72 0
-68 -66 -111 -24 -117 0
-68 -66 -111 -72 -117 0
-68 -66 -21 -114 -24 0
-68 -66 -21 -114 -72 0
-68 -66 -21 -114 -117 0
-68 -66 -21 -24 -72 0
-68 -66 -21 -24 -117 0
-68 -66 -21 -72 -117 0
-68 -66 -114 -24 -72 0
-68 -66 -114 -24 -117 0
-68 -66 -114 -72 -117 0
-68 -66 -24 -72 -117 0
-68 -111 -21 -114 -24 0
-68 -111 -21 -114 -72 0
-68 -111 -21 -114 -117 0
-68 -111 -21 -24 -72 0
-68 -111 -21 -24 -117 0
-68 -111 -21 -72 -117 0
-68 -111 -114 -24 -72 0
-68 -111 -114 -24 -117 0
-68 -111 -114 -72 -117 0
-68 -111 -24 -72 -117 0
-68 -21 -114 -24 -72 0
-68 -21 -114 -24 -117 0
-68 -21 -114 -72 -117 0
-68 -21 -24 -72 -117 0
-68 -114 -24 -72 -117 0
-68 18 66 111 21 114 24 0
-68 18 66 111 21 114 72 0
-68 18 66 111 21 114 117 0
-68 18 66 111 21 24 72 0
-68 18 66 111 21 24 117 0
-68 18 66 111 21 72 117 0
-68 18 66 111 114 24 72 0
-68 18 66 111 114 24 117 0
-68 18 66 111 114 72 117 0
-68 18 66 111 24 72 117 0
-68 18 66 21 114 24 72 0
-68 18 66 21 114 24 117 0
-68 18 66 21 114 72 117 0
-68 18 66 21 24 72 117 0
-68 18 66 114 24 72 117 0
-68 18 111 21 114 24 72 0
-68 18 111 21 114 24 117 0
-68 18 111 21 114 72 117 0
-68 18 111 21 24 72 117 0
-68 18 111 114 24 72 117 0
-68 18 21 114 24 72 117 0
-68 66 111 21 114 24 72 0
-68 66 111 21 114 24 117 0
-68 66 111 21 114 72 117 0
-68 66 111 21 24 72 117 0
-68 66 111 114 24 72 117 0
-68 66 21 114 24 72 117 0
-68 111 21 114 24 72 117 0
-69 -16 -64 -109 -19 -112 0
-69 -16 -64 -109 -19 -22 0
-69 -16 -64 -109 -19 -70 0
-69 -16 -64 -109 -19 -115 0
-69 -16 -64 -109 -112 -22 0
-69 -16 -64 -109 -112 -70 0
-69 -16 -64 -109 -112 -115 0
-69 -16 -64 -109 -22 -70 0
-69 -16 -64 -109 -22 -115 0
-69 -16 -64 -109 -70 -115 0
-69 -16 -64 -19 -112 -22 0
-69 -16 -64 -19 -112 -70 0
-69 -16 -64 -19 -112 -115 0
-69 -16 -64 -19 -22 -70 0
-69 -16 -64 -19 -22 -115 0
-69 -16 -64 -19 -70 -115 0
-69 -16 -64 -112 -22 -70 0
-69 -16 -64 -112 -22 -115 0
-69 -16 -64 -112 -70 -115 0
-69 -16 -64 -22 -70 -115 0
-69 -16 -109 -19 -112 -22 0
-69 -16 -109 -19 -112 -70 0
-69 -16 -109 -19 -112 -115 0
-69 -16 -109 -19 -22 -70 0
-69 -16 -109 -19 -22 -115 0
-69 -16 -109 -19 -70 -115 0
-69 -16 -109 -112 -22 -70 0
-69 -16 -109 -112 -22 -115 0
-69 -16 -109 -112 -70 -115 0
-69 -16 -109 -22 -70 -115 0
-69 -16 -19 -112 -22 -70 0
-69 -16 -19 -112 -22 -115 0
-69 -16 -19 -112 -70 -115 0
-69 -16 -19 -22 -70 -115 0
-69 -16 -112 -22 -70 -115 0
-69 -64 -109 -19 -112 -22 0
-69 -64 -109 -19 -112 -70 0
-69 -64 -109 -19 -112 -115 0
-69 -64 -109 -19 -22 -70 0
-69 -64 -109 -19 -22 -115 0
-69 -64 -109 -19 -70 -115 0
-69 -64 -109 -112 -22 -70 0
-69 -64 -109 -112 -22 -115 0
-69 -64 -109 -112 -70 -115 0
-69 -64 -109 -22 -70 -115 0
-69 -64 -19 -112 -22 -70 0
-69 -64 -19 -112 -22 -115 0
-69 -64 -19 -112 -70 -115 0
-69 -64 -19 -22 -70 -115 0
-69 -64 -112 -22 -70 -115 0
-69 -109 -19 -112 -22 -70 0
-69 -109 -19 -112 -22 -115 0
-69 -109 -19 -112 -70 -115 0
-69 -109 -19 -22 -70 -115 0
-69 -109 -112 -22 -70 -115 0
-69 -19 -112 -22 -70 -115 0
-69 16 64 109 19 112 0
-69 16 64 109 19 22 0
-69 16 64 109 19 70 0
-69 16 64 109 19 115 0
-69 16 64 109 112 22 0
-69 16 64 109 112 70 0
-69 16 64 109 112 115 0
-69 16 64 109 22 70 0
-69 16 64 109 22 115 0
-69 16 64 109 70 115 0
-69 16 64 19 112 22 0
-69 16 64 19 112 70 0
-69 16 64 19 112 115 0
-69 16 64 19 22 70 0
-69 16 64 19 22 115 0
-69 16 64 19 70 115 0
-69 16 64 112 22 70 0
-69 16 64 112 22 115 0
-69 16 64 112 70 115 0
-69 16 64 22 70 115 0
-69 16 109 19 112 22 0
-69 16 109 19 112 70 0
-69 16 109 19 112 115 0
-69 16 109 19 22 70 0
-69 16 109 19 22 115 0
-69 16 109 19 70 115 0
-69 16 109 112 22 70 0
-69 16 109 112 22 115 0
-69 16 109 112 70 115 0
-69 16 109 22 70 115 0
-69 16 19 112 22 70 0
-69 16 19 112 22 115 0
-69 16 19 112 70 115 0
-69 16 19 22 70 115 0
-69 16 112 22 70 115 0
-69 64 109 19 112 22 0
-69 64 109 19 112 70 0
-69 64 109 19 112 115 0
-69 64 109 19 22 70 0
-69 64 109 19 22 115 0
-69 64 109 19 70 115 0
-69 64 109 112 22 70 0
-69 64 109 112 22 115 0
-69 64 109 112 70 115 0
-69 64 109 22 70 115 0
-69 64 19 112 22 70 0
-69 64 19 112 22 115 0
-69 64 19 112 70 115 0
-69 64 19 22 70 115 0
-69 64 112 22 70 115 0
-69 109 19 112 22 70 0
-69 109 19 112 22 115 0
-69 109 19 112 70 115 0
-69 109 19 22 70 115 0
-69 109 112 22 70 115 0
-69 19 112 22 70 115 0
-70 -71 0
-70 -72 0
-71 -72 0
-70 -20 -68 -113 0
-70 -20 -68 -23 0
-70 -20 -68 -116 0
-70 -20 -68 -26 0
-70 -20 -68 -74 0
-70 -20 -68 -119 0
-70 -20 -113 -23 0
-70 -20 -113 -116 0
-70 -20 -113 -26 0
-70 -20 -113 -74 0
-70 -20 -113 -119 0
-70 -20 -23 -116 0
-70 -20 -23 -26 0
-70 -20 -23 -74 0
-70 -20 -23 -119 0
-70 -20 -116 -26 0
-70 -20 -116 -74 0
-70 -20 -116 -119 0
-70 -20 -26 -74 0
-70 -20 -26 -119 0
-70 -20 -74 -119 0
-70 -68 -113 -23 0
-70 -68 -113 -116 0
-70 -68 -113 -26 0
-70 -68 -113 -74 0
-70 -68 -113 -119 0
-70 -68 -23 -116 0
-70 -68 -23 -26 0
-70 -68 -23 -74 0
-70 -68 -23 -119 0
-70 -68 -116 -26 0
-70 -68 -116 -74 0
-70 -68 -116 -119 0
-70 -68 -26 -74 0
-70 -68 -26 -119 0
-70 -68 -74 -119 0
-70 -113 -23 -116 0
-70 -113 -23 -26 0
-70 -113 -23 -74 0
-70 -113 -23 -119 0
-70 -113 -116 -26 0
-70 -113 -116 -74 0
-70 -113 -116 -119 0
-70 -113 -26 -74 0
-70 -113 -26 -119 0
-70 -113 -74 -119 0
-70 -23 -116 -26 0
-70 -23 -116 -74 0
-70 -23 -116 -119 0
-70 -23 -26 -74 0
-70 -23 -26 -119 0
-70 -23 -74 -119 0
-70 -116 -26 -74 0
-70 -116 -26 -119 0
-70 -116 -74 -119 0
-70 -26 -74 -119 0
-70 20 68 113 23 116 26 74 0
-70 20 68 113 23 116 26 119 0
-70 20 68 113 23 116 74 119 0
-70 20 68 113 23 26 74 119 0
-70 20 68 113 116 26 74 119 0
-70 20 68 23 116 26 74 119 0
-70 20 113 23 116 26 74 119 0
-70 68 113 23 116 26 74 119 0
-71 -21 -69 -114 -24 0
-71 -21 -69 -114 -117 0
-71 -21 -69 -114 -27 0
-71 -21 -69 -114 -75 0
-71 -21 -69 -114 -120 0
-71 -21 -69 -24 -117 0
-71 -21 -69 -24 -27 0
-71 -21 -69 -24 -75 0
-71 -21 -69 -24 -120 0
-71 -21 -69 -117 -27 0
-71 -21 -69 -117 -75 0
-71 -21 -69 -117 -120 0
-71 -21 -69 -27 -75 0
-71 -21 -69 -27 -120 0
-71 -21 -69 -75 -120 0
-71 -21 -114 -24 -117 0
-71 -21 -114 -24 -27 0
-71 -21 -114 -24 -75 0
-71 -21 -114 -24 -120 0
-71 -21 -114 -117 -27 0
-71 -21 -114 -117 -75 0
-71 -21 -114 -117 -120 0
-71 -21 -114 -27 -75 0
-71 -21 -114 -27 -120 0
-71 -21 -114 -75 -120 0
-71 -21 -24 -117 -27 0
-71 -21 -24 -117 -75 0
-71 -21 -24 -117 -120 0
-71 -21 -24 -27 -75 0
-71 -21 -24 -27 -120 0
-71 -21 -24 -75 -120 0
-71 -21 -117 -27 -75 0
-71 -21 -117 -27 -120 0
-71 -21 -117 -75 -120 0
-71 -21 -27 -75 -120 0
-71 -69 -114 -24 -117 0
-71 -69 -114 -24 -27 0
-71 -69 -114 -24 -75 0
-71 -69 -114 -24 -120 0
-71 -69 -114 -117 -27 0
-71 -69 -114 -117 -75 0
-71 -69 -114 -117 -120 0
-71 -69 -114 -27 -75 0
-71 -69 -114 -27 -120 0
-71 -69 -114 -75 -120 0
-71 -69 -24 -117 -27 0
-71 -69 -24 -117 -75 0
-71 -69 -24 -117 -120 0
-71 -69 -24 -27 -75 0
-71 -69 -24 -27 -120 0
-71 -69 -24 -75 -120 0
-71 -69 -117 -27 -75 0
-71 -69 -117 -27 -120 0
-71 -69 -117 -75 -120 0
-71 -69 -27 -75 -120 0
-71 -114 -24 -117 -27 0
-71 -114 -24 -117 -75 0
-71 -114 -24 -117 -120 0
-71 -114 -24 -27 -75 0
-71 -114 -24 -27 -120 0
-71 -114 -24 -75 -120 0
-71 -114 -117 -27 -75 0
-71 -114 -117 -27 -120 0
-71 -114 -117 -75 -120 0
-71 -114 -27 -75 -120 0
-71 -24 -117 -27 -75 0
-71 -24 -117 -27 -120 0
-71 -24 -117 -75 -120 0
-71 -24 -27 -75 -120 0
-71 -117 -27 -75 -120 0
-71 21 69 114 24 117 27 0
-71 21 69 114 24 117 75 0
-71 21 69 114 24 117 120 0
-71 21 69 114 24 27 75 0
-71 21 69 114 24 27 120 0
-71 21 69 114 24 75 120 0
-71 21 69 114 117 27 75 0
-71 21 69 114 117 27 120 0
-71 21 69 114 117 75 120 0
-71 21 69 114 27 75 120 0
-71 21 69 24 117 27 75 0
-71 21 69 24 117 27 120 0
-71 21 69 24 117 75 120 0
-71 21 69 24 27 75 120 0
-71 21 69 117 27 75 120 0
-71 21 114 24 117 27 75 0
-71 21 114 24 117 27 120 0
-71 21 114 24 117 75 120 0
-71 21 114 24 27 75 120 0
-71 21 114 117 27 75 120 0
-71 21 24 117 27 75 120 0
-71 69 114 24 117 27 75 0
-71 69 114 24 117 27 120 0
-71 69 114 24 117 75 120 0
-71 69 114 24 27 75 120 0
-71 69 114 117 27 75 120 0
-71 69 24 117 27 75 120 0
-71 114 24 117 27 75 120 0
-72 -19 -67 -112 -22 -115 0
-72 -19 -67 -112 -22 -25 0
-72 -19 -67 -112 -22 -73 0
-72 -19 -67 -112 -22 -118 0
-72 -19 -67 -112 -115 -25 0
-72 -19 -67 -112 -115 -73 0
-72 -19 -67 -112 -115 -118 0
-72 -19 -67 -112 -25 -73 0
-72 -19 -67 -112 -25 -118 0
-72 -19 -67 -112 -73 -118 0
-72 -19 -67 -22 -115 -25 0
-72 -19 -67 -22 -115 -73 0
-72 -19 -67 -22 -115 -118 0
-72 -19 -67 -22 -25 -73 0
-72 -19 -67 -22 -25 -118 0
-72 -19 -67 -22 -73 -118 0
-72 -19 -67 -115 -25 -73 0
-72 -19 -67 -115 -25 -118 0
-72 -19 -67 -115 -73 -118 0
-72 -19 -67 -25 -73 -118 0
-72 -19 -112 -22 -115 -25 0
-72 -19 -112 -22 -115 -73 0
-72 -19 -112 -22 -115 -118 0
-72 -19 -112 -22 -25 -73 0
-72 -19 -112 -22 -25 -118 0
-72 -19 -112 -22 -73 -118 0
-72 -19 -112 -115 -25 -73 0
-72 -19 -112 -115 -25 -118 0
-72 -19 -112 -115 -73 -118 0
-72 -19 -112 -25 -73 -118 0
-72 -19 -22 -115 -25 -73 0
-72 -19 -22 -115 -25 -118 0
-72 -19 -22 -115 -73 -118 0
-72 -19 -22 -25 -73 -118 0
-72 -19 -115 -25 -73 -118 0
-72 -67 -112 -22 -115 -25 0
-72 -67 -112 -22 -115 -73 0
-72 -67 -112 -22 -115 -118 0
-72 -67 -112 -22 -25 -73 0
-72 -67 -112 -22 -25 -118 0
-72 -67 -112 -22 -73 -118 0
-72 -67 -112 -115 -25 -73 0
-72 -67 -112 -115 -25 -118 0
-72 -67 -112 -115 -73 -118 0
-72 -67 -112 -25 -73 -118 0
-72 -67 -22 -115 -25 -73 0
-72 -67 -22 -115 -25 -118 0
-72 -67 -22 -115 -73 -118 0
-72 -67 -22 -25 -73 -118 0
-72 -67 -115 -25 -73 -118 0
-72 -112 -22 -115 -25 -73 0
-72 -112 -22 -115 -25 -118 0
-72 -112 -22 -115 -73 -118 0
-72 -112 -22 -25 -73 -118 0
-72 -112 -115 -25 -73 -118 0
-72 -22 -115 -25 -73 -118 0
-72 19 67 112 22 115 0
-72 19 67 112 22 25 0
-72 19 67 112 22 73 0
-72 19 67 112 22 118 0
-72 19 67 112 115 25 0
-72 19 67 112 115 73 0
-72 19 67 112 115 118 0
-72 19 67 112 25 73 0
-72 19 67 112 25 118 0
-72 19 67 112 73 118 0
-72 19 67 22 115 25 0
-72 19 67 22 115 73 0
-72 19 67 22 115 118 0
-72 19 67 22 25 73 0
-72 19 67 22 25 118 0
-72 19 67 22 73 118 0
-72 19 67 115 25 73 0
-72 19 67 115 25 118 0
-72 19 67 115 73 118 0
-72 19 67 25 73 118 0
-72 19 112 22 115 25 0
-72 19 112 22 115 73 0
-72 19 112 22 115 118 0
-72 19 112 22 25 73 0
-72 19 112 22 25 118 0
-72 19 112 22 73 118 0
-72 19 112 115 25 73 0
-72 19 112 115 25 118 0
-72 19 112 115 73 118 0
-72 19 112 25 73 118 0
-72 19 22 115 25 73 0
-72 19 22 115 25 118 0
-72 19 22 115 73 118 0
-72 19 22 25 73 118 0
-72 19 115 25 73 118 0
-72 67 112 22 115 25 0
-72 67 112 22 115 73 0
-72 67 112 22 115 118 0
-72 67 112 22 25 73 0
-72 67 112 22 25 118 0
-72 67 112 22 73 118 0
-72 67 112 115 25 73 0
-72 67 112 115 25 118 0
-72 67 112 115 73 118 0
-72 67 112 25 73 118 0
-72 67 22 115 25 73 0
-72 67 22 115 25 118 0
-72 67 22 115 73 118 0
-72 67 22 25 73 118 0
-72 67 115 25 73 118 0
-72 112 22 115 25 73 0
-72 112 22 115 25 118 0
-72 112 22 115 73 118 0
-72 112 22 25 73 118 0
-72 112 115 25 73 118 0
-72 22 115 25 73 118 0
-73 -74 0
-73 -75 0
-74 -75 0
-73 -23 -71 -116 0
-73 -23 -71 -26 0
-73 -23 -71 -119 0
-73 -23 -71 -29 0
-73 -23 -71 -77 0
-73 -23 -71 -122 0
-73 -23 -116 -26 0
-73 -23 -116 -119 0
-73 -23 -116 -29 0
-73 -23 -116 -77 0
-73 -23 -116 -122 0
-73 -23 -26 -119 0
-73 -23 -26 -29 0
-73 -23 -26 -77 0
-73 -23 -26 -122 0
-73 -23 -119 -29 0
-73 -23 -119 -77 0
-73 -23 -119 -122 0
-73 -23 -29 -77 0
-73 -23 -29 -122 0
-73 -23 -77 -122 0
-73 -71 -116 -26 0
-73 -71 -116 -119 0
-73 -71 -116 -29 0
-73 -71 -116 -77 0
-73 -71 -116 -122 0
-73 -71 -26 -119 0
-73 -71 -26 -29 0
-73 -71 -26 -77 0
-73 -71 -26 -122 0
-73 -71 -119 -29 0
-73 -71 -119 -77 0
-73 -71 -119 -122 0
-73 -71 -29 -77 0
-73 -71 -29 -122 0
-73 -71 -77 -122 0
-73 -116 -26 -119 0
-73 -116 -26 -29 0
-73 -116 -26 -77 0
-73 -116 -26 -122 0
-73 -116 -119 -29 0
-73 -116 -119 -77 0
-73 -116 -119 -122 0
-73 -116 -29 -77 0
-73 -116 -29 -122 0
-73 -116 -77 -122 0
-73 -26 -119 -29 0
-73 -26 -119 -77 0
-73 -26 -119 -122 0
-73 -26 -29 -77 0
-73 -26 -29 -122 0
-73 -26 -77 -122 0
-73 -119 -29 -77 0
-73 -119 -29 -122 0
-73 -119 -77 -122 0
-73 -29 -77 -122 0
-73 23 71 116 26 119 29 77 0
-73 23 71 116 26 119 29 122 0
-73 23 71 116 26 119 77 122 0
-73 23 71 116 26 29 77 122 0
-73 23 71 116 119 29 77 122 0
-73 23 71 26 119 29 77 122 0
-73 23 116 26 119 29 77 122 0
-73 71 116 26 119 29 77 122 0
-74 -24 -72 -117 -27 0
-74 -24 -72 -117 -120 0
-74 -24 -72 -117 -30 0
-74 -24 -72 -117 -78 0
-74 -24 -72 -117 -123 0
-74 -24 -72 -27 -120 0
-74 -24 -72 -27 -30 0
-74 -24 -72 -27 -78 0
-74 -24 -72 -27 -123 0
-74 -24 -72 -120 -30 0
-74 -24 -72 -120 -78 0
-74 -24 -72 -120 -123 0
-74 -24 -72 -30 -78 0
-74 -24 -72 -30 -123 0
-74 -24 -72 -78 -123 0
-74 -24 -117 -27 -120 0
-74 -24 -117 -27 -30 0
-74 -24 -117 -27 -78 0
-74 -24 -117 -27 -123 0
-74 -24 -117 -120 -30 0
-74 -24 -117 -120 -78 0
-74 -24 -117 -120 -123 0
-74 -24 -117 -30 -78 0
-74 -24 -117 -30 -123 0
-74 -24 -117 -78 -123 0
-74 -24 -27 -120 -30 0
-74 -24 -27 -120 -78 0
-74 -24 -27 -120 -123 0
-74 -24 -27 -30 -78 0
-74 -24 -27 -30 -123 0
-74 -24 -27 -78 -123 0
-74 -24 -120 -30 -78 0
-74 -24 -120 -30 -123 0
-74 -24 -120 -78 -123 0
-74 -24 -30 -78 -123 0
-74 -72 -117 -27 -120 0
-74 -72 -117 -27 -30 0
-74 -72 -117 -27 -78 0
-74 -72 -117 -27 -123 0
-74 -72 -117 -120 -30 0
-74 -72 -117 -120 -78 0
-74 -72 -117 -120 -123 0
-74 -72 -117 -30 -78 0
-74 -72 -117 -30 -123 0
-74 -72 -117 -78 -123 0
-74 -72 -27 -120 -30 0
-74 -72 -27 -120 -78 0
-74 -72 -27 -120 -123 0
-74 -72 -27 -30 -78 0
-74 -72 -27 -30 -123 0
-74 -72 -27 -78 -123 0
-74 -72 -120 -30 -78 0
-74 -72 -120 -30 -123 0
-74 -72 -120 -78 -123 0
-74 -72 -30 -78 -123 0
-74 -117 -27 -120 -30 0
-74 -117 -27 -120 -78 0
-74 -117 -27 -120 -123 0
-74 -117 -27 -30 -78 0
-74 -117 -27 -30 -123 0
-74 -117 -27 -78 -123 0
-74 -117 -120 -30 -78 0
-74 -117 -120 -30 -123 0
-74 -117 -120 -78 -123 0
-74 -117 -30 -78 -123 0
-74 -27 -120 -30 -78 0
-74 -27 -120 -30 -123 0
-74 -27 -120 -78 -123 0
-74 -27 -30 -78 -123 0
-74 -120 -30 -78 -123 0
-74 24 72 117 27 120 30 0
-74 24 72 117 27 120 78 0
-74 24 72 117 27 120 123 0
-74 24 72 117 27 30 78 0
-74 24 72 117 27 30 123 0
-74 24 72 117 27 78 123 0
-74 24 72 117 120 30 78 0
-74 24 72 117 120 30 123 0
-74 24 72 117 120 78 123 0
-74 24 72 117 30 78 123 0
-74 24 72 27 120 30 78 0
-74 24 72 27 120 30 123 0
-74 24 72 27 120 78 123 0
-74 24 72 27 30 78 123 0
-74 24 72 120 30 78 123 0
-74 24 117 27 120 30 78 0
-74 24 117 27 120 30 123 0
-74 24 117 27 120 78 123 0
-74 24 117 27 30 78 123 0
-74 24 117 120 30 78 123 0
-74 24 27 120 30 78 123 0
-74 72 117 27 120 30 78 0
-74 72 117 27 120 30 123 0
-74 72 117 27 120 78 123 0
-74 72 117 27 30 78 123 0
-74 72 117 120 30 78 123 0
-74 72 27 120 30 78 123 0
-74 117 27 120 30 78 123 0
-75 -22 -70 -115 -25 -118 0
-75 -22 -70 -115 -25 -28 0
-75 -22 -70 -115 -25 -76 0
-75 -22 -70 -115 -25 -121 0
-75 -22 -70 -115 -118 -28 0
-75 -22 -70 -115 -118 -76 0
-75 -22 -70 -115 -118 -121 0
-75 -22 -70 -115 -28 -76 0
-75 -22 -70 -115 -28 -121 0
-75 -22 -70 -115 -76 -121 0
-75 -22 -70 -25 -118 -28 0
-75 -22 -70 -25 -118 -76 0
-75 -22 -70 -25 -118 -121 0
-75 -22 -70 -25 -28 -76 0
-75 -22 -70 -25 -28 -121 0
-75 -22 -70 -25 -76 -121 0
-75 -22 -70 -118 -28 -76 0
-75 -22 -70 -118 -28 -121 0
-75 -22 -70 -118 -76 -121 0
-75 -22 -70 -28 -76 -121 0
-75 -22 -115 -25 -118 -28 0
-75 -22 -115 -25 -118 -76 0
-75 -22 -115 -25 -118 -121 0
-75 -22 -115 -25 -28 -76 0
-75 -22 -115 -25 -28 -121 0
-75 -22 -115 -25 -76 -121 0
-75 -22 -115 -118 -28 -76 0
-75 -22 -115 -118 -28 -121 0
-75 -22 -115 -118 -76 -121 0
-75 -22 -115 -28 -76 -121 0
-75 -22 -25 -118 -28 -76 0
-75 -22 -25 -118 -28 -121 0
-75 -22 -25 -118 -76 -121 0
-75 -22 -25 -28 -76 -121 0
-75 -22 -118 -28 -76 -121 0
-75 -70 -115 -25 -118 -28 0
-75 -70 -115 -25 -118 -76 0
-75 -70 -115 -25 -118 -121 0
-75 -70 -115 -25 -28 -76 0
-75 -70 -115 -25 -28 -121 0
-75 -70 -115 -25 -76 -121 0
-75 -70 -115 -118 -28 -76 0
-75 -70 -115 -118 -28 -121 0
-75 -70 -115 -118 -76 -121 0
-75 -70 -115 -28 -76 -121 0
-75 -70 -25 -118 -28 -76 0
-75 -70 -25 -118 -28 -121 0
-75 -70 -25 -118 -76 -121 0
-75 -70 -25 -28 -76 -121 0
-75 -70 -118 -28 -76 -121 0
-75 -115 -25 -118 -28 -76 0
-75 -115 -25 -118 -28 -121 0
-75 -115 -25 -118 -76 -121 0
-75 -115 -25 -28 -76 -121 0
-75 -115 -118 -28 -76 -121 0
-75 -25 -118 -28 -76 -121 0
-75 22 70 115 25 118 0
-75 22 70 115 25 28 0
-75 22 70 115 25 76 0
-75 22 70 115 25 121 0
-75 22 70 115 118 28 0
-75 22 70 115 118 76 0
-75 22 70 115 118 121 0
-75 22 70 115 28 76 0
-75 22 70 115 28 121 0
-75 22 70 115 76 121 0
-75 22 70 25 118 28 0
-75 22 70 25 118 76 0
-75 22 70 25 118 121 0
-75 22 70 25 28 76 0
-75 22 70 25 28 121 0
-75 22 70 25 76 121 0
-75 22 70 118 28 76 0
-75 22 70 118 28 121 0
-75 22 70 118 76 121 0
-75 22 70 28 76 121 0
-75 22 115 25 118 28 0
-75 22 115 25 118 76 0
-75 22 115 25 118 121 0
-75 22 115 25 28 76 0
-75 22 115 25 28 121 0
-75 22 115 25 76 121 0
-75 22 115 118 28 76 0
-75 22 115 118 28 121 0
-75 22 115 118 76 121 0
-75 22 115 28 76 121 0
-75 22 25 118 28 76 0
-75 22 25 118 28 121 0
-75 22 25 118 76 121 0
-75 22 25 28 76 121 0
-75 22 118 28 76 121 0
-75 70 115 25 118 28 0
-75 70 115 25 118 76 0
-75 70 115 25 118 121 0
-75 70 115 25 28 76 0
-75 70 115 25 28 121 0
-75 70 115 25 76 121 0
-75 70 115 118 28 76 0
-75 70 115 118 28 121 0
-75 70 115 118 76 121 0
-75 70 115 28 76 121 0
-75 70 25 118 28 76 0
-75 70 25 118 28 121 0
-75 70 25 118 76 121 0
-75 70 25 28 76 121 0
-75 70 118 28 76 121 0
-75 115 25 118 28 76 0
-75 115 25 118 28 121 0
-75 115 25 118 76 121 0
-75 115 25 28 76 121 0
-75 115 118 28 76 121 0
-75 25 118 28 76 121 0
-76 -77 0
-76 -78 0
-77 -78 0
-76 -26 -74 -119 0
-76 -26 -74 -29 0
-76 -26 -74 -122 0
-76 -26 -74 -32 0
-76 -26 -74 -80 0
-76 -26 -74 -125 0
-76 -26 -119 -29 0
-76 -26 -119 -122 0
-76 -26 -119 -32 0
-76 -26 -119 -80 0
-76 -26 -119 -125 0
-76 -26 -29 -122 0
-76 -26 -29 -32 0
-76 -26 -29 -80 0
-76 -26 -29 -125 0
-76 -26 -122 -32 0
-76 -26 -122 -80 0
-76 -26 -122 -125 0
-76 -26 -32 -80 0
-76 -26 -32 -125 0
-76 -26 -80 -125 0
-76 -74 -119 -29 0
-76 -74 -119 -122 0
-76 -74 -119 -32 0
-76 -74 -119 -80 0
-76 -74 -119 -125 0
-76 -74 -29 -122 0
-76 -74 -29 -32 0
-76 -74 -29 -80 0
-76 -74 -29 -125 0
-76 -74 -122 -32 0
-76 -74 -122 -80 0
-76 -74 -122 -125 0
-76 -74 -32 -80 0
-76 -74 -32 -125 0
-76 -74 -80 -125 0
-76 -119 -29 -122 0
-76 -119 -29 -32 0
-76 -119 -29 -80 0
-76 -119 -29 -125 0
-76 -119 -122 -32 0
-76 -119 -122 -80 0
-76 -119 -122 -125 0
-76 -119 -32 -80 0
-76 -119 -32 -125 0
-76 -119 -80 -125 0
-76 -29 -122 -32 0
-76 -29 -122 -80 0
-76 -29 -122 -125 0
-76 -29 -32 -80 0
-76 -29 -32 -125 0
-76 -29 -80 -125 0
-76 -122 -32 -80 0
-76 -122 -32 -125 0
-76 -122 -80 -125 0
-76 -32 -80 -125 0
-76 26 74 119 29 122 32 80 0
-76 26 74 119 29 122 32 125 0
-76 26 74 119 29 122 80 125 0
-76 26 74 119 29 32 80 125 0
-76 26 74 119 122 32 80 125 0
-76 26 74 29 122 32 80 125 0
-76 26 119 29 122 32 80 125 0
-76 74 119 29 122 32 80 125 0
-77 -27 -75 -120 -30 0
-77 -27 -75 -120 -123 0
-77 -27 -75 -120 -33 0
-77 -27 -75 -120 -81 0
-77 -27 -75 -120 -126 0
-77 -27 -75 -30 -123 0
-77 -27 -75 -30 -33 0
-77 -27 -75 -30 -81 0
-77 -27 -75 -30 -126 0
-77 -27 -75 -123 -33 0
-77 -27 -75 -123 -81 0
-77 -27 -75 -123 -126 0
-77 -27 -75 -33 -81 0
-77 -27 -75 -33 -126 0
-77 -27 -75 -81 -126 0
-77 -27 -120 -30 -123 0
-77 -27 -120 -30 -33 0
-77 -27 -120 -30 -81 0
-77 -27 -120 -30 -126 0
-77 -27 -120 -123 -33 0
-77 -27 -120 -123 -81 0
-77 -27 -120 -123 -126 0
-77 -27 -120 -33 -81 0
-77 -27 -120 -33 -126 0
-77 -27 -120 -81 -126 0
-77 -27 -30 -123 -33 0
-77 -27 -30 -123 -81 0
-77 -27 -30 -123 -126 0
-77 -27 -30 -33 -81 0
-77 -27 -30 -33 -126 0
-77 -27 -30 -81 -126 0
-77 -27 -123 -33 -81 0
-77 -27 -123 -33 -126 0
-77 -27 -123 -81 -126 0
-77 -27 -33 -81 -126 0
-77 -75 -120 -30 -123 0
-77 -75 -120 -30 -33 0
-77 -75 -120 -30 -81 0
-77 -75 -120 -30 -126 0
-77 -75 -120 -123 -33 0
-77 -75 -120 -123 -81 0
-77 -75 -120 -123 -126 0
-77 -75 -120 -33 -81 0
-77 -75 -120 -33 -126 0
-77 -75 -120 -81 -126 0
-77 -75 -30 -123 -33 0
-77 -75 -30 -123 -81 0
-77 -75 -30 -123 -126 0
-77 -75 -30 -33 -81 0
-77 -75 -30 -33 -126 0
-77 -75 -30 -81 -126 0
-77 -75 -123 -33 -81 0
-77 -75 -123 -33 -126 0
-77 -75 -123 -81 -126 0
-77 -75 -33 -81 -126 0
-77 -120 -30 -123 -33 0
-77 -120 -30 -123 -81 0
-77 -120 -30 -123 -126 0
-77 -120 -30 -33 -81 0
-77 -120 -30 -33 -126 0
-77 -120 -30 -81 -126 0
-77 -120 -123 -33 -81 0
-77 -120 -123 -33 -126 0
-77 -120 -123 -81 -126 0
-77 -120 -33 -81 -126 0
-77 -30 -123 -33 -81 0
-77 -30 -123 -33 -126 0
-77 -30 -123 -81 -126 0
-77 -30 -33 -81 -126 0
-77 -123 -33 -81 -126 0
-77 27 75 120 30 123 33 0
-77 27 75 120 30 123 81 0
-77 27 75 120 30 123 126 0
-77 27 75 120 30 33 81 0
-77 27 75 120 30 33 126 0
-77 27 75 120 30 81 126 0
-77 27 75 120 123 33 81 0
-77 27 75 120 123 33 126 0
-77 27 75 120 123 81 126 0
-77 27 75 120 33 81 126 0
-77 27 75 30 123 33 81 0
-77 27 75 30 123 33 126 0
-77 27 75 30 123 81 126 0
-77 27 75 30 33 81 126 0
-77 27 75 123 33 81 126 0
-77 27 120 30 123 33 81 0
-77 27 120 30 123 33 126 0
-77 27 120 30 123 81 126 0
-77 27 120 30 33 81 126 0
-77 27 120 123 33 81 126 0
-77 27 30 123 33 81 126 0
-77 75 120 30 123 33 81 0
-77 75 120 30 123 33 126 0
-77 75 120 30 123 81 126 0
-77 75 120 30 33 81 126 0
-77 75 120 123 33 81 126 0
-77 75 30 123 33 81 126 0
-77 120 30 123 33 81 126 0
-78 -25 -73 -118 -28 -121 0
-78 -25 -73 -118 -28 -31 0
-78 -25 -73 -118 -28 -79 0
-78 -25 -73 -118 -28 -124 0
-78 -25 -73 -118 -121 -31 0
-78 -25 -73 -118 -121 -79 0
-78 -25 -73 -118 -121 -124 0
-78 -25 -73 -118 -31 -79 0
-78 -25 -73 -118 -31 -124 0
-78 -25 -73 -118 -79 -124 0
-78 -25 -73 -28 -121 -31 0
-78 -25 -73 -28 -121 -79 0
-78 -25 -73 -28 -121 -124 0
-78 -25 -73 -28 -31 -79 0
-78 -25 -73 -28 -31 -124 0
-78 -25 -73 -28 -79 -124 0
-78 -25 -73 -121 -31 -79 0
-78 -25 -73 -121 -31 -124 0
-78 -25 -73 -121 -79 -124 0
-78 -25 -73 -31 -79 -124 0
-78 -25 -118 -28 -121 -31 0
-78 -25 -118 -28 -121 -79 0
-78 -25 -118 -28 -121 -124 0
-78 -25 -118 -28 -31 -79 0
-78 -25 -118 -28 -31 -124 0
-78 -25 -118 -28 -79 -124 0
-78 -25 -118 -121 -31 -79 0
-78 -25 -118 -121 -31 -124 0
-78 -25 -118 -121 -79 -124 0
-78 -25 -118 -31 -79 -124 0
-78 -25 -28 -121 -31 -79 0
-78 -25 -28 -121 -31 -124 0
-78 -25 -28 -121 -79 -124 0
-78 -25 -28 -31 -79 -124 0
-78 -25 -121 -31 -79 -124 0
-78 -73 -118 -28 -121 -31 0
-78 -73 -118 -28 -121 -79 0
-78 -73 -118 -28 -121 -124 0
-78 -73 -118 -28 -31 -79 0
-78 -73 -118 -28 -31 -124 0
-78 -73 -118 -28 -79 -124 0
-78 -73 -118 -121 -31 -79 0
-78 -73 -118 -121 -31 -124 0
-78 -73 -118 -121 -79 -124 0
-78 -73 -118 -31 -79 -124 0
-78 -73 -28 -121 -31 -79 0
-78 -73 -28 -121 -31 -124 0
-78 -73 -28 -121 -79 -124 0
-78 -73 -28 -31 -79 -124 0
-78 -73 -121 -31 -79 -124 0
-78 -118 -28 -121 -31 -79 0
-78 -118 -28 -121 -31 -124 0
-78 -118 -28 -121 -79 -124 0
-78 -118 -28 -31 -79 -124 0
-78 -118 -121 -31 -79 -124 0
-78 -28 -121 -31 -79 -124 0
-78 25 73 118 28 121 0
-78 25 73 118 28 31 0
-78 25 73 118 28 79 0
-78 25 73 118 28 124 0
-78 25 73 118 121 31 0
-78 25 73 118 121 79 0
-78 25 73 118 121 124 0
-78 25 73 118 31 79 0
-78 25 73 118 31 124 0
-78 25 73 118 79 124 0
-78 25 73 28 121 31 0
-78 25 73 28 121 79 0
-78 25 73 28 121 124 0
-78 25 73 28 31 79 0
-78 25 73 28 31 124 0
-78 25 73 28 79 124 0
-78 25 73 121 31 79 0
-78 25 73 121 31 124 0
-78 25 73 121 79 124 0
-78 25 73 31 79 124 0
-78 25 118 28 121 31 0
-78 25 118 28 121 79 0
-78 25 118 28 121 124 0
-78 25 118 28 31 79 0
-78 25 118 28 31 124 0
-78 25 118 28 79 124 0
-78 25 118 121 31 79 0
-78 25 118 121 31 124 0
-78 25 118 121 79 124 0
-78 25 118 31 79 124 0
-78 25 28 121 31 79 0
-78 25 28 121 31 124 0
-78 25 28 121 79 124 0
-78 25 28 31 79 124 0
-78 25 121 31 79 124 0
-78 73 118 28 121 31 0
-78 73 118 28 121 79 0
-78 73 118 28 121 124 0
-78 73 118 28 31 79 0
-78 73 118 28 31 124 0
-78 73 118 28 79 124 0
-78 73 118 121 31 79 0
-78 73 118 121 31 124 0
-78 73 118 121 79 124 0
-78 73 118 31 79 124 0
-78 73 28 121 31 79 0
-78 73 28 121 31 124 0
-78 73 28 121 79 124 0
-78 73 28 31 79 124 0
-78 73 121 31 79 124 0
-78 118 28 121 31 79 0
-78 118 28 121 31 124 0
-78 118 28 121 79 124 0
-78 118 28 31 79 124 0
-78 118 121 31 79 124 0
-78 28 121 31 79 124 0
-79 -80 0
-79 -81 0
-80 -81 0
-79 -29 -77 -122 0
-79 -29 -77 -32 0
-79 -29 -77 -125 0
-79 -29 -77 -35 0
-79 -29 -77 -83 0
-79 -29 -77 -128 0
-79 -29 -122 -32 0
-79 -29 -122 -125 0
-79 -29 -122 -35 0
-79 -29 -122 -83 0
-79 -29 -122 -128 0
-79 -29 -32 -125 0
-79 -29 -32 -35 0
-79 -29 -32 -83 0
-79 -29 -32 -128 0
-79 -29 -125 -35 0
-79 -29 -125 -83 0
-79 -29 -125 -128 0
-79 -29 -35 -83 0
-79 -29 -35 -128 0
-79 -29 -83 -128 0
-79 -77 -122 -32 0
-79 -77 -122 -125 0
-79 -77 -122 -35 0
-79 -77 -122 -83 0
-79 -77 -122 -128 0
-79 -77 -32 -125 0
-79 -77 -32 -35 0
-79 -77 -32 -83 0
-79 -77 -32 -128 0
-79 -77 -125 -35 0
-79 -77 -125 -83 0
-79 -77 -125 -128 0
-79 -77 -35 -83 0
-79 -77 -35 -128 0
-79 -77 -83 -128 0
-79 -122 -32 -125 0
-79 -122 -32 -35 0
-79 -122 -32 -83 0
-79 -122 -32 -128 0
-79 -122 -125 -35 0
-79 -122 -125 -83 0
-79 -122 -125 -128 0
-79 -122 -35 -83 0
-79 -122 -35 -128 0
-79 -122 -83 -128 0
-79 -32 -125 -35 0
-79 -32 -125 -83 0
-79 -32 -125 -128 0
-79 -32 -35 -83 0
-79 -32 -35 -128 0
-79 -32 -83 -128 0
-79 -125 -35 -83 0
-79 -125 -35 -128 0
-79 -125 -83 -128 0
-79 -35 -83 -128 0
-79 29 77 122 32 125 35 83 0
-79 29 77 122 32 125 35 128 0
-79 29 77 122 32 125 83 128 0
-79 29 77 122 32 35 83 128 0
-79 29 77 122 125 35 83 128 0
-79 29 77 32 125 35 83 128 0
-79 29 122 32 125 35 83 128 0
-79 77 122 32 125 35 83 128 0
-80 -30 -78 -123 -33 0
-80 -30 -78 -123 -126 0
-80 -30 -78 -123 -36 0
-80 -30 -78 -123 -84 0
-80 -30 -78 -123 -129 0
-80 -30 -78 -33 -126 0
-80 -30 -78 -33 -36 0
-80 -30 -78 -33 -84 0
-80 -30 -78 -33 -129 0
-80 -30 -78 -126 -36 0
-80 -30 -78 -126 -84 0
-80 -30 -78 -126 -129 0
-80 -30 -78 -36 -84 0
-80 -30 -78 -36 -129 0
-80 -30 -78 -84 -129 0
-80 -30 -123 -33 -126 0
-80 -30 -123 -33 -36 0
-80 -30 -123 -33 -84 0
-80 -30 -123 -33 -129 0
-80 -30 -123 -126 -36 0
-80 -30 -123 -126 -84 0
-80 -30 -123 -126 -129 0
-80 -30 -123 -36 -84 0
-80 -30 -123 -36 -129 0
-80 -30 -123 -84 -129 0
-80 -30 -33 -126 -36 0
-80 -30 -33 -126 -84 0
-80 -30 -33 -126 -129 0
-80 -30 -33 -36 -84 0
-80 -30 -33 -36 -129 0
-80 -30 -33 -84 -129 0
-80 -30 -126 -36 -84 0
-80 -30 -126 -36 -129 0
-80 -30 -126 -84 -129 0
-80 -30 -36 -84 -129 0
-80 -78 -123 -33 -126 0
-80 -78 -123 -33 -36 0
-80 -78 -123 -33 -84 0
-80 -78 -123 -33 -129 0
-80 -78 -123 -126 -36 0
-80 -78 -123 -126 -84 0
-80 -78 -123 -126 -129 0
-80 -78 -123 -36 -84 0
-80 -78 -123 -36 -129 0
-80 -78 -123 -84 -129 0
-80 -78 -33 -126 -36 0
-80 -78 -33 -126 -84 0
-80 -78 -33 -126 -129 0
-80 -78 -33 -36 -84 0
-80 -78 -33 -36 -129 0
-80 -78 -33 -84 -129 0
-80 -78 -126 -36 -84 0
-80 -78 -126 -36 -129 0
-80 -78 -126 -84 -129 0
-80 -78 -36 -84 -129 0
-80 -123 -33 -126 -36 0
-80 -123 -33 -126 -84 0
-80 -123 -33 -126 -129 0
-80 -123 -33 -36 -84 0
-80 -123 -33 -36 -129 0
-80 -123 -33 -84 -129 0
-80 -123 -126 -36 -84 0
-80 -123 -126 -36 -129 0
-80 -123 -126 -84 -129 0
-80 -123 -36 -84 -129 0
-80 -33 -126 -36 -84 0
-80 -33 -126 -36 -129 0
-80 -33 -126 -84 -129 0
-80 -33 -36 -84 -129 0
-80 -126 -36 -84 -129 0
-80 30 78 123 33 126 36 0
-80 30 78 123 33 126 84 0
-80 30 78 123 33 126 129 0
-80 30 78 123 33 36 84 0
-80 30 78 123 33 36 129 0
-80 30 78 123 33 84 129 0
-80 30 78 123 126 36 84 0
-80 30 78 123 126 36 129 0
-80 30 78 123 126 84 129 0
-80 30 78 123 36 84 129 0
-80 30 78 33 126 36 84 0
-80 30 78 33 126 36 129 0
-80 30 78 33 126 84 129 0
-80 30 78 33 36 84 129 0
-80 30 78 126 36 84 129 0
-80 30 123 33 126 36 84 0
-80 30 123 33 126 36 129 0
-80 30 123 33 126 84 129 0
-80 30 123 33 36 84 129 0
-80 30 123 126 36 84 129 0
-80 30 33 126 36 84 129 0
-80 78 123 33 126 36 84 0
-80 78 123 33 126 36 129 0
-80 78 123 33 126 84 129 0
-80 78 123 33 36 84 129 0
-80 78 123 126 36 84 129 0
-80 78 33 126 36 84 129 0
-80 123 33 126 36 84 129 0
-81 -28 -76 -121 -31 -124 0
-81 -28 -76 -121 -31 -34 0
-81 -28 -76 -121 -31 -82 0
-81 -28 -76 -121 -31 -127 0
-81 -28 -76 -121 -124 -34 0
-81 -28 -76 -121 -124 -82 0
-81 -28 -76 -121 -124 -127 0
-81 -28 -76 -121 -34 -82 0
-81 -28 -76 -121 -34 -127 0
-81 -28 -76 -121 -82 -127 0
-81 -28 -76 -31 -124 -34 0
-81 -28 -76 -31 -124 -82 0
-81 -28 -76 -31 -124 -127 0
-81 -28 -76 -31 -34 -82 0
-81 -28 -76 -31 -34 -127 0
-81 -28 -76 -31 -82 -127 0
-81 -28 -76 -124 -34 -82 0
-81 -28 -76 -124 -34 -127 0
-81 -28 -76 -124 -82 -127 0
-81 -28 -76 -34 -82 -127 0
-81 -28 -121 -31 -124 -34 0
-81 -28 -121 -31 -124 -82 0
-81 -28 -121 -31 -124 -127 0
-81 -28 -121 -31 -34 -82 0
-81 -28 -121 -31 -34 -127 0
-81 -28 -121 -31 -82 -127 0
-81 -28 -121 -124 -34 -82 0
-81 -28 -121 -124 -34 -127 0
-81 -28 -121 -124 -82 -127 0
-81 -28 -121 -34 -82 -127 0
-81 -28 -31 -124 -34 -82 0
-81 -28 -31 -124 -34 -127 0
-81 -28 -31 -124 -82 -127 0
-81 -28 -31 -34 -82 -127 0
-81 -28 -124 -34 -82 -127 0
-81 -76 -121 -31 -124 -34 0
-81 -76 -121 -31 -124 -82 0
-81 -76 -121 -31 -124 -127 0
-81 -76 -121 -31 -34 -82 0
-81 -76 -121 -31 -34 -127 0
-81 -76 -121 -31 -82 -127 0
-81 -76 -121 -124 -34 -82 0
-81 -76 -121 -124 -34 -127 0
-81 -76 -121 -124 -82 -127 0
-81 -76 -121 -34 -82 -127 0
-81 -76 -31 -124 -34 -82 0
-81 -76 -31 -124 -34 -127 0
-81 -76 -31 -124 -82 -127 0
-81 -76 -31 -34 -82 -127 0
-81 -76 -124 -34 -82 -127 0
-81 -121 -31 -124 -34 -82 0
-81 -121 -31 -124 -34 -127 0
-81 -121 -31 -124 -82 -127 0
-81 -121 -31 -34 -82 -127 0
-81 -121 -124 -34 -82 -127 0
-81 -31 -124 -34 -82 -127 0
-81 28 76 121 31 124 0
-81 28 76 121 31 34 0
-81 28 76 121 31 82 0
-81 28 76 121 31 127 0
-81 28 76 121 124 34 0
-81 28 76 121 124 82 0
-81 28 76 121 124 127 0
-81 28 76 121 34 82 0
-81 28 76 121 34 127 0
-81 28 76 121 82 127 0
-81 28 76 31 124 34 0
-81 28 76 31 124 82 0
-81 28 76 31 124 127 0
-81 28 76 31 34 82 0
-81 28 76 31 34 127 0
-81 28 76 31 82 127 0
-81 28 76 124 34 82 0
-81 28 76 124 34 127 0
-81 28 76 124 82 127 0
-81 28 76 34 82 127 0
-81 28 121 31 124 34 0
-81 28 121 31 124 82 0
-81 28 121 31 124 127 0
-81 28 121 31 34 82 0
-81 28 121 31 34 127 0
-81 28 121 31 82 127 0
-81 28 121 124 34 82 0
-81 28 121 124 34 127 0
-81 28 121 124 82 127 0
-81 28 121 34 82 127 0
-81 28 31 124 34 82 0
-81 28 31 124 34 127 0
-81 28 31 124 82 127 0
-81 28 31 34 82 127 0
-81 28 124 34 82 127 0
-81 76 121 31 124 34 0
-81 76 121 31 124 82 0
-81 76 121 31 124 127 0
-81 76 121 31 34 82 0
-81 76 121 31 34 127 0
-81 76 121 31 82 127 0
-81 76 121 124 34 82 0
-81 76 121 124 34 127 0
-81 76 121 124 82 127 0
-81 76 121 34 82 127 0
-81 76 31 124 34 82 0
-81 76 31 124 34 127 0
-81 76 31 124 82 127 0
-81 76 31 34 82 127 0
-81 76 124 34 82 127 0
-81 121 31 124 34 82 0
-81 121 31 124 34 127 0
-81 121 31 124 82 127 0
-81 121 31 34 82 127 0
-81 121 124 34 82 127 0
-81 31 124 34 82 127 0
-82 -83 0
-82 -84 0
-83 -84 0
-82 -32 -80 -125 0
-82 -32 -80 -35 0
-82 -32 -80 -128 0
-82 -32 -80 -38 0
-82 -32 -80 -86 0
-82 -32 -80 -131 0
-82 -32 -125 -35 0
-82 -32 -125 -128 0
-82 -32 -125 -38 0
-82 -32 -125 -86 0
-82 -32 -125 -131 0
-82 -32 -35 -128 0
-82 -32 -35 -38 0
-82 -32 -35 -86 0
-82 -32 -35 -131 0
-82 -32 -128 -38 0
-82 -32 -128 -86 0
-82 -32 -128 -131 0
-82 -32 -38 -86 0
-82 -32 -38 -131 0
-82 -32 -86 -131 0
-82 -80 -125 -35 0
-82 -80 -125 -128 0
-82 -80 -125 -38 0
-82 -80 -125 -86 0
-82 -80 -125 -131 0
-82 -80 -35 -128 0
-82 -80 -35 -38 0
-82 -80 -35 -86 0
-82 -80 -35 -131 0
-82 -80 -128 -38 0
-82 -80 -128 -86 0
-82 -80 -128 -131 0
-82 -80 -38 -86 0
-82 -80 -38 -131 0
-82 -80 -86 -131 0
-82 -125 -35 -128 0
-82 -125 -35 -38 0
-82 -125 -35 -86 0
-82 -125 -35 -131 0
-82 -125 -128 -38 0
-82 -125 -128 -86 0
-82 -125 -128 -131 0
-82 -125 -38 -86 0
-82 -125 -38 -131 0
-82 -125 -86 -131 0
-82 -35 -128 -38 0
-82 -35 -128 -86 0
-82 -35 -128 -131 0
-82 -35 -38 -86 0
-82 -35 -38 -131 0
-82 -35 -86 -131 0
-82 -128 -38 -86 0
-82 -128 -38 -131 0
-82 -128 -86 -131 0
-82 -38 -86 -131 0
-82 32 80 125 35 128 38 86 0
-82 32 80 125 35 128 38 131 0
-82 32 80 125 35 128 86 131 0
-82 32 80 125 35 38 86 131 0
-82 32 80 125 128 38 86 131 0
-82 32 80 35 128 38 86 131 0
-82 32 125 35 128 38 86 131 0
-82 80 125 35 128 38 86 131 0
-83 -33 -81 -126 -36 0
-83 -33 -81 -126 -129 0
-83 -33 -81 -126 -39 0
-83 -33 -81 -126 -87 0
-83 -33 -81 -126 -132 0
-83 -33 -81 -36 -129 0
-83 -33 -81 -36 -39 0
-83 -33 -81 -36 -87 0
-83 -33 -81 -36 -132 0
-83 -33 -81 -129 -39 0
-83 -33 -81 -129 -87 0
-83 -33 -81 -129 -132 0
-83 -33 -81 -39 -87 0
-83 -33 -81 -39 -132 0
-83 -33 -81 -87 -132 0
-83 -33 -126 -36 -129 0
-83 -33 -126 -36 -39 0
-83 -33 -126 -36 -87 0
-83 -33 -126 -36 -132 0
-83 -33 -126 -129 -39 0
-83 -33 -126 -129 -87 0
-83 -33 -126 -129 -132 0
-83 -33 -126 -39 -87 0
-83 -33 -126 -39 -132 0
-83 -33 -126 -87 -132 0
-83 -33 -36 -129 -39 0
-83 -33 -36 -129 -87 0
-83 -33 -36 -129 -132 0
-83 -33 -36 -39 -87 0
-83 -33 -36 -39 -132 0
-83 -33 -36 -87 -132 0
-83 -33 -129 -39 -87 0
-83 -33 -129 -39 -132 0
-83 -33 -129 -87 -132 0
-83 -33 -39 -87 -132 0
-83 -81 -126 -36 -129 0
-83 -81 -126 -36 -39 0
-83 -81 -126 -36 -87 0
-83 -81 -126 -36 -132 0
-83 -81 -126 -129 -39 0
-83 -81 -126 -129 -87 0
-83 -81 -126 -129 -132 0
-83 -81 -126 -39 -87 0
-83 -81 -126 -39 -132 0
-83 -81 -126 -87 -132 0
-83 -81 -36 -129 -39 0
-83 -81 -36 -129 -87 0
-83 -81 -36 -129 -132 0
-83 -81 -36 -39 -87 0
-83 -81 -36 -39 -132 0
-83 -81 -36 -87 -132 0
-83 -81 -129 -39 -87 0
-83 -81 -129 -39 -132 0
-83 -81 -129 -87 -132 0
-83 -81 -39 -87 -132 0
-83 -126 -36 -129 -39 0
-83 -126 -36 -129 -87 0
-83 -126 -36 -129 -132 0
-83 -126 -36 -39 -87 0
-83 -126 -36 -39 -132 0
-83 -126 -36 -87 -132 0
-83 -126 -129 -39 -87 0
-83 -126 -129 -39 -132 0
-83 -126 -129 -87 -132 0
-83 -126 -39 -87 -132 0
-83 -36 -129 -39 -87 0
-83 -36 -129 -39 -132 0
-83 -36 -129 -87 -132 0
-83 -36 -39 -87 -132 0
-83 -129 -39 -87 -132 0
-83 33 81 126 36 129 39 0
-83 33 81 126 36 129 87 0
-83 33 81 126 36 129 132 0
-83 33 81 126 36 39 87 0
-83 33 81 126 36 39 132 0
-83 33 81 126 36 87 132 0
-83 33 81 126 129 39 87 0
-83 33 81 126 129 39 132 0
-83 33 81 126 129 87 132 0
-83 33 81 126 39 87 132 0
-83 33 81 36 129 39 87 0
-83 33 81 36 129 39 132 0
-83 33 81 36 129 87 132 0
-83 33 81 36 39 87 132 0
-83 33 81 129 39 87 132 0
-83 33 126 36 129 39 87 0
-83 33 126 36 129 39 132 0
-83 33 126 36 129 87 132 0
-83 33 126 36 39 87 132 0
-83 33 126 129 39 87 132 0
-83 33 36 129 39 87 132 0
-83 81 126 36 129 39 87 0
-83 81 126 36 129 39 132 0
-83 81 126 36 129 87 132 0
-83 81 126 36 39 87 132 0
-83 81 126 129 39 87 132 0
-83 81 36 129 39 87 132 0
-83 126 36 129 39 87 132 0
-84 -31 -79 -124 -34 -127 0
-84 -31 -79 -124 -34 -37 0
-84 -31 -79 -124 -34 -85 0
-84 -31 -79 -124 -34 -130 0
-84 -31 -79 -124 -127 -37 0
-84 -31 -79 -124 -127 -85 0
-84 -31 -79 -124 -127 -130 0
-84 -31 -79 -124 -37 -85 0
-84 -31 -79 -124 -37 -130 0
-84 -31 -79 -124 -85 -130 0
-84 -31 -79 -34 -127 -37 0
-84 -31 -79 -34 -127 -85 0
-84 -31 -79 -34 -127 -130 0
-84 -31 -79 -34 -37 -85 0
-84 -31 -79 -34 -37 -130 0
-84 -31 -79 -34 -85 -130 0
-84 -31 -79 -127 -37 -85 0
-84 -31 -79 -127 -37 -130 0
-84 -31 -79 -127 -85 -130 0
-84 -31 -79 -37 -85 -130 0
-84 -31 -124 -34 -127 -37 0
-84 -31 -124 -34 -127 -85 0
-84 -31 -124 -34 -127 -130 0
-84 -31 -124 -34 -37 -85 0
-84 -31 -124 -34 -37 -130 0
-84 -31 -124 -34 -85 -130 0
-84 -31 -124 -127 -37 -85 0
-84 -31 -124 -127 -37 -130 0
-84 -31 -124 -127 -85 -130 0
-84 -31 -124 -37 -85 -130 0
-84 -31 -34 -127 -37 -85 0
-84 -31 -34 -127 -37 -130 0
-84 -31 -34 -127 -85 -130 0
-84 -31 -34 -37 -85 -130 0
-84 -31 -127 -37 -85 -130 0
-84 -79 -124 -34 -127 -37 0
-84 -79 -124 -34 -127 -85 0
-84 -79 -124 -34 -127 -130 0
-84 -79 -124 -34 -37 -85 0
-84 -79 -124 -34 -37 -130 0
-84 -79 -124 -34 -85 -130 0
-84 -79 -124 -127 -37 -85 0
-84 -79 -124 -127 -37 -130 0
-84 -79 -124 -127 -85 -130 0
-84 -79 -124 -37 -85 -130 0
-84 -79 -34 -127 -37 -85 0
-84 -79 -34 -127 -37 -130 0
-84 -79 -34 -127 -85 -130 0
-84 -79 -34 -37 -85 -130 0
-84 -79 -127 -37 -85 -130 0
-84 -124 -34 -127 -37 -85 0
-84 -124 -34 -127 -37 -130 0
-84 -124 -34 -127 -85 -130 0
-84 -124 -34 -37 -85 -130 0
-84 -124 -127 -37 -85 -130 0
-84 -34 -127 -37 -85 -130 0
-84 31 79 124 34 127 0
-84 31 79 124 34 37 0
-84 31 79 124 34 85 0
-84 31 79 124 34 130 0
-84 31 79 124 127 37 0
-84 31 79 124 127 85 0
-84 31 79 124 127 130 0
-84 31 79 124 37 85 0
-84 31 79 124 37 130 0
-84 31 79 124 85 130 0
-84 31 79 34 127 37 0
-84 31 79 34 127 85 0
-84 31 79 34 127 130 0
-84 31 79 34 37 85 0
-84 31 79 34 37 130 0
-84 31 79 34 85 130 0
-84 31 79 127 37 85 0
-84 31 79 127 37 130 0
-84 31 79 127 85 130 0
-84 31 79 37 85 130 0
-84 31 124 34 127 37 0
-84 31 124 34 127 85 0
-84 31 124 34 127 130 0
-84 31 124 34 37 85 0
-84 31 124 34 37 130 0
-84 31 124 34 85 130 0
-84 31 124 127 37 85 0
-84 31 124 127 37 130 0
-84 31 124 127 85 130 0
-84 31 124 37 85 130 0
-84 31 34 127 37 85 0
-84 31 34 127 37 130 0
-84 31 34 127 85 130 0
-84 31 34 37 85 130 0
-84 31 127 37 85 130 0
-84 79 124 34 127 37 0
-84 79 124 34 127 85 0
-84 79 124 34 127 130 0
-84 79 124 34 37 85 0
-84 79 124 34 37 130 0
-84 79 124 34 85 130 0
-84 79 124 127 37 85 0
-84 79 124 127 37 130 0
-84 79 124 127 85 130 0
-84 79 124 37 85 130 0
-84 79 34 127 37 85 0
-84 79 34 127 37 130 0
-84 79 34 127 85 130 0
-84 79 34 37 85 130 0
-84 79 127 37 85 130 0
-84 124 34 127 37 85 0
-84 124 34 127 37 130 0
-84 124 34 127 85 130 0
-84 124 34 37 85 130 0
-84 124 127 37 85 130 0
-84 34 127 37 85 130 0
-85 -86 0
-85 -87 0
-86 -87 0
-85 -35 -83 -128 0
-85 -35 -83 -38 0
-85 -35 -83 -131 0
-85 -35 -83 -41 0
-85 -35 -83 -89 0
-85 -35 -83 -134 0
-85 -35 -128 -38 0
-85 -35 -128 -131 0
-85 -35 -128 -41 0
-85 -35 -128 -89 0
-85 -35 -128 -134 0
-85 -35 -38 -131 0
-85 -35 -38 -41 0
-85 -35 -38 -89 0
-85 -35 -38 -134 0
-85 -35 -131 -41 0
-85 -35 -131 -89 0
-85 -35 -131 -134 0
-85 -35 -41 -89 0
-85 -35 -41 -134 0
-85 -35 -89 -134 0
-85 -83 -128 -38 0
-85 -83 -128 -131 0
-85 -83 -128 -41 0
-85 -83 -128 -89 0
-85 -83 -128 -134 0
-85 -83 -38 -131 0
-85 -83 -38 -41 0
-85 -83 -38 -89 0
-85 -83 -38 -134 0
-85 -83 -131 -41 0
-85 -83 -131 -89 0
-85 -83 -131 -134 0
-85 -83 -41 -89 0
-85 -83 -41 -134 0
-85 -83 -89 -134 0
-85 -128 -38 -131 0
-85 -128 -38 -41 0
-85 -128 -38 -89 0
-85 -128 -38 -134 0
-85 -128 -131 -41 0
-85 -128 -131 -89 0
-85 -128 -131 -134 0
-85 -128 -41 -89 0
-85 -128 -41 -134 0
-85 -128 -89 -134 0
-85 -38 -131 -41 0
-85 -38 -131 -89 0
-85 -38 -131 -134 0
-85 -38 -41 -89 0
-85 -38 -41 -134 0
-85 -38 -89 -134 0
-85 -131 -41 -89 0
-85 -131 -41 -134 0
-85 -131 -89 -134 0
-85 -41 -89 -134 0
-85 35 83 128 38 131 41 89 0
-85 35 83 128 38 131 41 134 0
-85 35 83 128 38 131 89 134 0
-85 35 83 128 38 41 89 134 0
-85 35 83 128 131 41 89 134 0
-85 35 83 38 131 41 89 134 0
-85 35 128 38 131 41 89 134 0
-85 83 128 38 131 41 89 134 0
-86 -36 -84 -129 -39 0
-86 -36 -84 -129 -132 0
-86 -36 -84 -129 -42 0
-86 -36 -84 -129 -90 0
-86 -36 -84 -129 -135 0
-86 -36 -84 -39 -132 0
-86 -36 -84 -39 -42 0
-86 -36 -84 -39 -90 0
-86 -36 -84 -39 -135 0
-86 -36 -84 -132 -42 0
-86 -36 -84 -132 -90 0
-86 -36 -84 -132 -135 0
-86 -36 -84 -42 -90 0
-86 -36 -84 -42 -135 0
-86 -36 -84 -90 -135 0
-86 -36 -129 -39 -132 0
-86 -36 -129 -39 -42 0
-86 -36 -129 -39 -90 0
-86 -36 -129 -39 -135 0
-86 -36 -129 -132 -42 0
-86 -36 -129 -132 -90 0
-86 -36 -129 -132 -135 0
-86 -36 -129 -42 -90 0
-86 -36 -129 -42 -135 0
-86 -36 -129 -90 -135 0
-86 -36 -39 -132 -42 0
-86 -36 -39 -132 -90 0
-86 -36 -39 -132 -135 0
-86 -36 -39 -42 -90 0
-86 -36 -39 -42 -135 0
-86 -36 -39 -90 -135 0
-86 -36 -132 -42 -90 0
-86 -36 -132 -42 -135 0
-86 -36 -132 -90 -135 0
-86 -36 -42 -90 -135 0
-86 -84 -129 -39 -132 0
-86 -84 -129 -39 -42 0
-86 -84 -129 -39 -90 0
-86 -84 -129 -39 -135 0
-86 -84 -129 -132 -42 0
-86 -84 -129 -132 -90 0
-86 -84 -129 -132 -135 0
-86 -84 -129 -42 -90 0
-86 -84 -129 -42 -135 0
-86 -84 -129 -90 -135 0
-86 -84 -39 -132 -42 0
-86 -84 -39 -132 -90 0
-86 -84 -39 -132 -135 0
-86 -84 -39 -42 -90 0
-86 -84 -39 -42 -135 0
-86 -84 -39 -90 -135 0
-86 -84 -132 -42 -90 0
-86 -84 -132 -42 -135 0
-86 -84 -132 -90 -135 0
-86 -84 -42 -90 -135 0
-86 -129 -39 -132 -42 0
-86 -129 -39 -132 -90 0
-86 -129 -39 -132 -135 0
-86 -129 -39 -42 -90 0
-86 -129 -39 -42 -135 0
-86 -129 -39 -90 -135 0
-86 -129 -132 -42 -90 0
-86 -129 -132 -42 -135 0
-86 -129 -132 -90 -135 0
-86 -129 -42 -90 -135 0
-86 -39 -132 -42 -90 0
-86 -39 -132 -42 -135 0
-86 -39 -132 -90 -135 0
-86 -39 -42 -90 -135 0
-86 -132 -42 -90 -135 0
-86 36 84 129 39 132 42 0
-86 36 84 129 39 132 90 0
-86 36 84 129 39 132 135 0
-86 36 84 129 39 42 90 0
-86 36 84 129 39 42 135 0
-86 36 84 129 39 90 135 0
-86 36 84 129 132 42 90 0
-86 36 84 129 132 42 135 0
-86 36 84 129 132 90 135 0
-86 36 84 129 42 90 135 0
-86 36 84 39 132 42 90 0
-86 36 84 39 132 42 135 0
-86 36 84 39 132 90 135 0
-86 36 84 39 42 90 135 0
-86 36 84 132 42 90 135 0
-86 36 129 39 132 42 90 0
-86 36 129 39 132 42 135 0
-86 36 129 39 132 90 135 0
-86 36 129 39 42 90 135 0
-86 36 129 132 42 90 135 0
-86 36 39 132 42 90 135 0
-86 84 129 39 132 42 90 0
-86 84 129 39 132 42 135 0
-86 84 129 39 132 90 135 0
-86 84 129 39 42 90 135 0
-86 84 129 132 42 90 135 0
-86 84 39 132 42 90 135 0
-86 129 39 132 42 90 135 0
-87 -34 -82 -127 -37 -130 0
-87 -34 -82 -127 -37 -40 0
-87 -34 -82 -127 -37 -88 0
-87 -34 -82 -127 -37 -133 0
-87 -34 -82 -127 -130 -40 0
-87 -34 -82 -127 -130 -88 0
-87 -34 -82 -127 -130 -133 0
-87 -34 -82 -127 -40 -88 0
-87 -34 -82 -127 -40 -133 0
-87 -34 -82 -127 -88 -133 0
-87 -34 -82 -37 -130 -40 0
-87 -34 -82 -37 -130 -88 0
-87 -34 -82 -37 -130 -133 0
-87 -34 -82 -37 -40 -88 0
-87 -34 -82 -37 -40 -133 0
-87 -34 -82 -37 -88 -133 0
-87 -34 -82 -130 -40 -88 0
-87 -34 -82 -130 -40 -133 0
-87 -34 -82 -130 -88 -133 0
-87 -34 -82 -40 -88 -133 0
-87 -34 -127 -37 -130 -40 0
-87 -34 -127 -37 -130 -88 0
-87 -34 -127 -37 -130 -133 0
-87 -34 -127 -37 -40 -88 0
-87 -34 -127 -37 -40 -133 0
-87 -34 -127 -37 -88 -133 0
-87 -34 -127 -130 -40 -88 0
-87 -34 -127 -130 -40 -133 0
-87 -34 -127 -130 -88 -133 0
-87 -34 -127 -40 -88 -133 0
-87 -34 -37 -130 -40 -88 0
-87 -34 -37 -130 -40 -133 0
-87 -34 -37 -130 -88 -133 0
-87 -34 -37 -40 -88 -133 0
-87 -34 -130 -40 -88 -133 0
-87 -82 -127 -37 -130 -40 0
-87 -82 -127 -37 -130 -88 0
-87 -82 -127 -37 -130 -133 0
-87 -82 -127 -37 -40 -88 0
-87 -82 -127 -37 -40 -133 0
-87 -82 -127 -37 -88 -133 0
-87 -82 -127 -130 -40 -88 0
-87 -82 -127 -130 -40 -133 0
-87 -82 -127 -130 -88 -133 0
-87 -82 -127 -40 -88 -133 0
-87 -82 -37 -130 -40 -88 0
-87 -82 -37 -130 -40 -133 0
-87 -82 -37 -130 -88 -133 0
-87 -82 -37 -40 -88 -133 0
-87 -82 -130 -40 -88 -133 0
-87 -127 -37 -130 -40 -88 0
-87 -127 -37 -130 -40 -133 0
-87 -127 -37 -130 -88 -133 0
-87 -127 -37 -40 -88 -133 0
-87 -127 -130 -40 -88 -133 0
-87 -37 -130 -40 -88 -133 0
-87 34 82 127 37 130 0
-87 34 82 127 37 40 0
-87 34 82 127 37 88 0
-87 34 82 127 37 133 0
-87 34 82 127 130 40 0
-87 34 82 127 130 88 0
-87 34 82 127 130 133 0
-87 34 82 127 40 88 0
-87 34 82 127 40 133 0
-87 34 82 127 88 133 0
-87 34 82 37 130 40 0
-87 34 82 37 130 88 0
-87 34 82 37 130 133 0
-87 34 82 37 40 88 0
-87 34 82 37 40 133 0
-87 34 82 37 88 133 0
-87 34 82 130 40 88 0
-87 34 82 130 40 133 0
-87 34 82 130 88 133 0
-87 34 82 40 88 133 0
-87 34 127 37 130 40 0
-87 34 127 37 130 88 0
-87 34 127 37 130 133 0
-87 34 127 37 40 88 0
-87 34 127 37 40 133 0
-87 34 127 37 88 133 0
-87 34 127 130 40 88 0
-87 34 127 130 40 133 0
-87 34 127 130 88 133 0
-87 34 127 40 88 133 0
-87 34 37 130 40 88 0
-87 34 37 130 40 133 0
-87 34 37 130 88 133 0
-87 34 37 40 88 133 0
-87 34 130 40 88 133 0
-87 82 127 37 130 40 0
-87 82 127 37 130 88 0
-87 82 127 37 130 133 0
-87 82 127 37 40 88 0
-87 82 127 37 40 133 0
-87 82 127 37 88 133 0
-87 82 127 130 40 88 0
-87 82 127 130 40 133 0
-87 82 127 130 88 133 0
-87 82 127 40 88 133 0
-87 82 37 130 40 88 0
-87 82 37 130 40 133 0
-87 82 37 130 88 133 0
-87 82 37 40 88 133 0
-87 82 130 40 88 133 0
-87 127 37 130 40 88 0
-87 127 37 130 40 133 0
-87 127 37 130 88 133 0
-87 127 37 40 88 133 0
-87 127 130 40 88 133 0
-87 37 130 40 88 133 0
-88 -89 0
-88 -90 0
-89 -90 0
-88 -38 -86 -131 0
-88 -38 -86 -41 0
-88 -38 -86 -134 0
-88 -38 -86 -44 0
-88 -38 -86 -92 0
-88 -38 -131 -41 0
-88 -38 -131 -134 0
-88 -38 -131 -44 0
-88 -38 -131 -92 0
-88 -38 -41 -134 0
-88 -38 -41 -44 0
-88 -38 -41 -92 0
-88 -38 -134 -44 0
-88 -38 -134 -92 0
-88 -38 -44 -92 0
-88 -86 -131 -41 0
-88 -86 -131 -134 0
-88 -86 -131 -44 0
-88 -86 -131 -92 0
-88 -86 -41 -134 0
-88 -86 -41 -44 0
-88 -86 -41 -92 0
-88 -86 -134 -44 0
-88 -86 -134 -92 0
-88 -86 -44 -92 0
-88 -131 -41 -134 0
-88 -131 -41 -44 0
-88 -131 -41 -92 0
-88 -131 -134 -44 0
-88 -131 -134 -92 0
-88 -131 -44 -92 0
-88 -41 -134 -44 0
-88 -41 -134 -92 0
-88 -41 -44 -92 0
-88 -134 -44 -92 0
-88 38 86 131 41 134 44 0
-88 38 86 131 41 134 92 0
-88 38 86 131 41 44 92 0
-88 38 86 131 134 44 92 0
-88 38 86 41 134 44 92 0
-88 38 131 41 134 44 92 0
-88 86 131 41 134 44 92 0
-89 -39 -87 -132 -42 0
-89 -39 -87 -132 -135 0
-89 -39 -87 -132 -45 0
-89 -39 -87 -132 -93 0
-89 -39 -87 -42 -135 0
-89 -39 -87 -42 -45 0
-89 -39 -87 -42 -93 0
-89 -39 -87 -135 -45 0
-89 -39 -87 -135 -93 0
-89 -39 -87 -45 -93 0
-89 -39 -132 -42 -135 0
-89 -39 -132 -42 -45 0
-89 -39 -132 -42 -93 0
-89 -39 -132 -135 -45 0
-89 -39 -132 -135 -93 0
-89 -39 -132 -45 -93 0
-89 -39 -42 -135 -45 0
-89 -39 -42 -135 -93 0
-89 -39 -42 -45 -93 0
-89 -39 -135 -45 -93 0
-89 -87 -132 -42 -135 0
-89 -87 -132 -42 -45 0
-89 -87 -132 -42 -93 0
-89 -87 -132 -135 -45 0
-89 -87 -132 -135 -93 0
-89 -87 -132 -45 -93 0
-89 -87 -42 -135 -45 0
-89 -87 -42 -135 -93 0
-89 -87 -42 -45 -93 0
-89 -87 -135 -45 -93 0
-89 -132 -42 -135 -45 0
-89 -132 -42 -135 -93 0
-89 -132 -42 -45 -93 0
-89 -132 -135 -45 -93 0
-89 -42 -135 -45 -93 0
-89 39 87 132 42 135 0
-89 39 87 132 42 45 0
-89 39 87 132 42 93 0
-89 39 87 132 135 45 0
-89 39 87 132 135 93 0
-89 39 87 132 45 93 0
-89 39 87 42 135 45 0
-89 39 87 42 135 93 0
-89 39 87 42 45 93 0
-89 39 87 135 45 93 0
-89 39 132 42 135 45 0
-89 39 132 42 135 93 0
-89 39 132 42 45 93 0
-89 39 132 135 45 93 0
-89 39 42 135 45 93 0
-89 87 132 42 135 45 0
-89 87 132 42 135 93 0
-89 87 132 42 45 93 0
-89 87 132 135 45 93 0
-89 87 42 135 45 93 0
-89 132 42 135 45 93 0
-90 -37 -85 -130 -40 -133 0
-90 -37 -85 -130 -40 -43 0
-90 -37 -85 -130 -40 -91 0
-90 -37 -85 -130 -133 -43 0
-90 -37 -85 -130 -133 -91 0
-90 -37 -85 -130 -43 -91 0
-90 -37 -85 -40 -133 -43 0
-90 -37 -85 -40 -133 -91 0
-90 -37 -85 -40 -43 -91 0
-90 -37 -85 -133 -43 -91 0
-90 -37 -130 -40 -133 -43 0
-90 -37 -130 -40 -133 -91 0
-90 -37 -130 -40 -43 -91 0
-90 -37 -130 -133 -43 -91 0
-90 -37 -40 -133 -43 -91 0
-90 -85 -130 -40 -133 -43 0
-90 -85 -130 -40 -133 -91 0
-90 -85 -130 -40 -43 -91 0
-90 -85 -130 -133 -43 -91 0
-90 -85 -40 -133 -43 -91 0
-90 -130 -40 -133 -43 -91 0
-90 37 85 130 40 0
-90 37 85 130 133 0
-90 37 85 130 43 0
-90 37 85 130 91 0
-90 37 85 40 133 0
-90 37 85 40 43 0
-90 37 85 40 91 0
-90 37 85 133 43 0
-90 37 85 133 91 0
-90 37 85 43 91 0
-90 37 130 40 133 0
-90 37 130 40 43 0
-90 37 130 40 91 0
-90 37 130 133 43 0
-90 37 130 133 91 0
-90 37 130 43 91 0
-90 37 40 133 43 0
-90 37 40 133 91 0
-90 37 40 43 91 0
-90 37 133 43 91 0
-90 85 130 40 133 0
-90 85 130 40 43 0
-90 85 130 40 91 0
-90 85 130 133 43 0
-90 85 130 133 91 0
-90 85 130 43 91 0
-90 85 40 133 43 0
-90 85 40 133 91 0
-90 85 40 43 91 0
-90 85 133 43 91 0
-90 130 40 133 43 0
-90 130 40 133 91 0
-90 130 40 43 91 0
-90 130 133 43 91 0
-90 40 133 43 91 0
-91 -92 0
-91 -93 0
-92 -93 0
-91 -41 -89 -134 0
-91 -41 -89 -44 0
-91 -41 -89 -47 0
-91 -41 -134 -44 0
-91 -41 -134 -47 0
-91 -41 -44 -47 0
-91 -89 -134 -44 0
-91 -89 -134 -47 0
-91 -89 -44 -47 0
-91 -134 -44 -47 0
-91 41 89 134 44 0
-91 41 89 134 47 0
-91 41 89 44 47 0
-91 41 134 44 47 0
-91 89 134 44 47 0
-92 -42 -90 -135 -45 0
-92 -42 -90 -135 -48 0
-92 -42 -90 -45 -48 0
-92 -42 -135 -45 -48 0
-92 -90 -135 -45 -48 0
-92 42 90 135 0
-92 42 90 45 0
-92 42 90 48 0
-92 42 135 45 0
-92 42 135 48 0
-92 42 45 48 0
-92 90 135 45 0
-92 90 135 48 0
-92 90 45 48 0
-92 135 45 48 0
-93 -40 -88 -133 -43 -46 0
-93 40 88 0
-93 40 133 0
-93 40 43 0
-93 40 46 0
-93 88 133 0
-93 88 43 0
-93 88 46 0
-93 133 43 0
-93 133 46 0
-93 43 46 0
-94 -95 0
-94 -96 0
-95 -96 0
-97 -98 0
-97 -99 0
-98 -99 0
-97 -50 -95 -137 0
-97 -50 -95 -53 0
-97 -50 -95 -140 0
-97 -50 -95 -56 0
-97 -50 -95 -101 0
-97 -50 -95 -143 0
-97 -50 -137 -53 0
-97 -50 -137 -140 0
-97 -50 -137 -56 0
-97 -50 -137 -101 0
-97 -50 -137 -143 0
-97 -50 -53 -140 0
-97 -50 -53 -56 0
-97 -50 -53 -101 0
-97 -50 -53 -143 0
-97 -50 -140 -56 0
-97 -50 -140 -101 0
-97 -50 -140 -143 0
-97 -50 -56 -101 0
-97 -50 -56 -143 0
-97 -50 -101 -143 0
-97 -95 -137 -53 0
-97 -95 -137 -140 0
-97 -95 -137 -56 0
-97 -95 -137 -101 0
-97 -95 -137 -143 0
-97 -95 -53 -140 0
-97 -95 -53 -56 0
-97 -95 -53 -101 0
-97 -95 -53 -143 0
-97 -95 -140 -56 0
-97 -95 -140 -101 0
-97 -95 -140 -143 0
-97 -95 -56 -101 0
-97 -95 -56 -143 0
-97 -95 -101 -143 0
-97 -137 -53 -140 0
-97 -137 -53 -56 0
-97 -137 -53 -101 0
-97 -137 -53 -143 0
-97 -137 -140 -56 0
-97 -137 -140 -101 0
-97 -137 -140 -143 0
-97 -137 -56 -101 0
-97 -137 -56 -143 0
-97 -137 -101 -143 0
-97 -53 -140 -56 0
-97 -53 -140 -101 0
-97 -53 -140 -143 0
-97 -53 -56 -101 0
-97 -53 -56 -143 0
-97 -53 -101 -143 0
-97 -140 -56 -101 0
-97 -140 -56 -143 0
-97 -140 -101 -143 0
-97 -56 -101 -143 0
-97 50 95 137 53 140 56 101 0
-97 50 95 137 53 140 56 143 0
-97 50 95 137 53 140 101 143 0
-97 50 95 137 53 56 101 143 0
-97 50 95 137 140 56 101 143 0
-97 50 95 53 140 56 101 143 0
-97 50 137 53 140 56 101 143 0
-97 95 137 53 140 56 101 143 0
-98 -51 -96 -138 -54 0
-98 -51 -96 -138 -141 0
-98 -51 -96 -138 -57 0
-98 -51 -96 -138 -102 0
-98 -51 -96 -138 -144 0
-98 -51 -96 -54 -141 0
-98 -51 -96 -54 -57 0
-98 -51 -96 -54 -102 0
-98 -51 -96 -54 -144 0
-98 -51 -96 -141 -57 0
-98 -51 -96 -141 -102 0
-98 -51 -96 -141 -144 0
-98 -51 -96 -57 -102 0
-98 -51 -96 -57 -144 0
-98 -51 -96 -102 -144 0
-98 -51 -138 -54 -141 0
-98 -51 -138 -54 -57 0
-98 -51 -138 -54 -102 0
-98 -51 -138 -54 -144 0
-98 -51 -138 -141 -57 0
-98 -51 -138 -141 -102 0
-98 -51 -138 -141 -144 0
-98 -51 -138 -57 -102 0
-98 -51 -138 -57 -144 0
-98 -51 -138 -102 -144 0
-98 -51 -54 -141 -57 0
-98 -51 -54 -141 -102 0
-98 -51 -54 -141 -144 0
-98 -51 -54 -57 -102 0
-98 -51 -54 -57 -144 0
-98 -51 -54 -102 -144 0
-98 -51 -141 -57 -102 0
-98 -51 -141 -57 -144 0
-98 -51 -141 -102 -144 0
-98 -51 -57 -102 -144 0
-98 -96 -138 -54 -141 0
-98 -96 -138 -54 -57 0
-98 -96 -138 -54 -102 0
-98 -96 -138 -54 -144 0
-98 -96 -138 -141 -57 0
-98 -96 -138 -141 -102 0
-98 -96 -138 -141 -144 0
-98 -96 -138 -57 -102 0
-98 -96 -138 -57 -144 0
-98 -96 -138 -102 -144 0
-98 -96 -54 -141 -57 0
-98 -96 -54 -141 -102 0
-98 -96 -54 -141 -144 0
-98 -96 -54 -57 -102 0
-98 -96 -54 -57 -144 0
-98 -96 -54 -102 -144 0
-98 -96 -141 -57 -102 0
-98 -96 -141 -57 -144 0
-98 -96 -141 -102 -144 0
-98 -96 -57 -102 -144 0
-98 -138 -54 -141 -57 0
-98 -138 -54 -141 -102 0
-98 -138 -54 -141 -144 0
-98 -138 -54 -57 -102 0
-98 -138 -54 -57 -144 0
-98 -138 -54 -102 -144 0
-98 -138 -141 -57 -102 0
-98 -138 -141 -57 -144 0
-98 -138 -141 -102 -144 0
-98 -138 -57 -102 -144 0
-98 -54 -141 -57 -102 0
-98 -54 -141 -57 -144 0
-98 -54 -141 -102 -144 0
-98 -54 -57 -102 -144 0
-98 -141 -57 -102 -144 0
-98 51 96 138 54 141 57 0
-98 51 96 138 54 141 102 0
-98 51 96 138 54 141 144 0
-98 51 96 138 54 57 102 0
-98 51 96 138 54 57 144 0
-98 51 96 138 54 102 144 0
-98 51 96 138 141 57 102 0
-98 51 96 138 141 57 144 0
-98 51 96 138 141 102 144 0
-98 51 96 138 57 102 144 0
-98 51 96 54 141 57 102 0
-98 51 96 54 141 57 144 0
-98 51 96 54 141 102 144 0
-98 51 96 54 57 102 144 0
-98 51 96 141 57 102 144 0
-98 51 138 54 141 57 102 0
-98 51 138 54 141 57 144 0
-98 51 138 54 141 102 144 0
-98 51 138 54 57 102 144 0
-98 51 138 141 57 102 144 0
-98 51 54 141 57 102 144 0
-98 96 138 54 141 57 102 0
-98 96 138 54 141 57 144 0
-98 96 138 54 141 102 144 0
-98 96 138 54 57 102 144 0
-98 96 138 141 57 102 144 0
-98 96 54 141 57 102 144 0
-98 138 54 141 57 102 144 0
-99 -49 -94 -136 -52 -139 0
-99 -49 -94 -136 -52 -55 0
-99 -49 -94 -136 -52 -100 0
-99 -49 -94 -136 -52 -142 0
-99 -49 -94 -136 -139 -55 0
-99 -49 -94 -136 -139 -100 0
-99 -49 -94 -136 -139 -142 0
-99 -49 -94 -136 -55 -100 0
-99 -49 -94 -136 -55 -142 0
-99 -49 -94 -136 -100 -142 0
-99 -49 -94 -52 -139 -55 0
-99 -49 -94 -52 -139 -100 0
-99 -49 -94 -52 -139 -142 0
-99 -49 -94 -52 -55 -100 0
-99 -49 -94 -52 -55 -142 0
-99 -49 -94 -52 -100 -142 0
-99 -49 -94 -139 -55 -100 0
-99 -49 -94 -139 -55 -142 0
-99 -49 -94 -139 -100 -142 0
-99 -49 -94 -55 -100 -142 0
-99 -49 -136 -52 -139 -55 0
-99 -49 -136 -52 -139 -100 0
-99 -49 -136 -52 -139 -142 0
-99 -49 -136 -52 -55 -100 0
-99 -49 -136 -52 -55 -142 0
-99 -49 -136 -52 -100 -142 0
-99 -49 -136 -139 -55 -100 0
-99 -49 -136 -139 -55 -142 0
-99 -49 -136 -139 -100 -142 0
-99 -49 -136 -55 -100 -142 0
-99 -49 -52 -139 -55 -100 0
-99 -49 -52 -139 -55 -142 0
-99 -49 -52 -139 -100 -142 0
-99 -49 -52 -55 -100 -142 0
-99 -49 -139 -55 -100 -142 0
-99 -94 -136 -52 -139 -55 0
-99 -94 -136 -52 -139 -100 0
-99 -94 -136 -52 -139 -142 0
-99 -94 -136 -52 -55 -100 0
-99 -94 -136 -52 -55 -142 0
-99 -94 -136 -52 -100 -142 0
-99 -94 -136 -139 -55 -100 0
-99 -94 -136 -139 -55 -142 0
-99 -94 -136 -139 -100 -142 0
-99 -94 -136 -55 -100 -142 0
-99 -94 -52 -139 -55 -100 0
-99 -94 -52 -139 -55 -142 0
-99 -94 -52 -139 -100 -142 0
-99 -94 -52 -55 -100 -142 0
-99 -94 -139 -55 -100 -142 0
-99 -136 -52 -139 -55 -100 0
-99 -136 -52 -139 -55 -142 0
-99 -136 -52 -139 -100 -142 0
-99 -136 -52 -55 -100 -142 0
-99 -136 -139 -55 -100 -142 0
-99 -52 -139 -55 -100 -142 0
-99 49 94 136 52 139 0
-99 49 94 136 52 55 0
-99 49 94 136 52 100 0
-99 49 94 136 52 142 0
-99 49 94 136 139 55 0
-99 49 94 136 139 100 0
-99 49 94 136 139 142 0
-99 49 94 136 55 100 0
-99 49 94 136 55 142 0
-99 49 94 136 100 142 0
-99 49 94 52 139 55 0
-99 49 94 52 139 100 0
-99 49 94 52 139 142 0
-99 49 94 52 55 100 0
-99 49 94 52 55 142 0
-99 49 94 52 100 142 0
-99 49 94 139 55 100 0
-99 49 94 139 55 142 0
-99 49 94 139 100 142 0
-99 49 94 55 100 142 0
-99 49 136 52 139 55 0
-99 49 136 52 139 100 0
-99 49 136 52 139 142 0
-99 49 136 52 55 100 0
-99 49 136 52 55 142 0
-99 49 136 52 100 142 0
-99 49 136 139 55 100 0
-99 49 136 139 55 142 0
-99 49 136 139 100 142 0
-99 49 136 55 100 142 0
-99 49 52 139 55 100 0
-99 49 52 139 55 142 0
-99 49 52 139 100 142 0
-99 49 52 55 100 142 0
-99 49 139 55 100 142 0
-99 94 136 52 139 55 0
-99 94 136 52 139 100 0
-99 94 136 52 139 142 0
-99 94 136 52 55 100 0
-99 94 136 52 55 142 0
-99 94 136 52 100 142 0
-99 94 136 139 55 100 0
-99 94 136 139 55 142 0
-99 94 136 139 100 142 0
-99 94 136 55 100 142 0
-99 94 52 139 55 100 0
-99 94 52 139 55 142 0
-99 94 52 139 100 142 0
-99 94 52 55 100 142 0
-99 94 139 55 100 142 0
-99 136 52 139 55 100 0
-99 136 52 139 55 142 0
-99 136 52 139 100 142 0
-99 136 52 55 100 142 0
-99 136 139 55 100 142 0
-99 52 139 55 100 142 0
-100 -101 0
-100 -102 0
-101 -102 0
-100 -53 -98 -140 0
-100 -53 -98 -56 0
-100 -53 -98 -143 0
-100 -53 -98 -59 0
-100 -53 -98 -104 0
-100 -53 -98 -146 0
-100 -53 -140 -56 0
-100 -53 -140 -143 0
-100 -53 -140 -59 0
-100 -53 -140 -104 0
-100 -53 -140 -146 0
-100 -53 -56 -143 0
-100 -53 -56 -59 0
-100 -53 -56 -104 0
-100 -53 -56 -146 0
-100 -53 -143 -59 0
-100 -53 -143 -104 0
-100 -53 -143 -146 0
-100 -53 -59 -104 0
-100 -53 -59 -146 0
-100 -53 -104 -146 0
-100 -98 -140 -56 0
-100 -98 -140 -143 0
-100 -98 -140 -59 0
-100 -98 -140 -104 0
-100 -98 -140 -146 0
-100 -98 -56 -143 0
-100 -98 -56 -59 0
-100 -98 -56 -104 0
-100 -98 -56 -146 0
-100 -98 -143 -59 0
-100 -98 -143 -104 0
-100 -98 -143 -146 0
-100 -98 -59 -104 0
-100 -98 -59 -146 0
-100 -98 -104 -146 0
-100 -140 -56 -143 0
-100 -140 -56 -59 0
-100 -140 -56 -104 0
-100 -140 -56 -146 0
-100 -140 -143 -59 0
-100 -140 -143 -104 0
-100 -140 -143 -146 0
-100 -140 -59 -104 0
-100 -140 -59 -146 0
-100 -140 -104 -146 0
-100 -56 -143 -59 0
-100 -56 -143 -104 0
-100 -56 -143 -146 0
-100 -56 -59 -104 0
-100 -56 -59 -146 0
-100 -56 -104 -146 0
-100 -143 -59 -104 0
-100 -143 -59 -146 0
-100 -143 -104 -146 0
-100 -59 -104 -146 0
-100 53 98 140 56 143 59 104 0
-100 53 98 140 56 143 59 146 0
-100 53 98 140 56 143 104 146 0
-100 53 98 140 56 59 104 146 0
-100 53 98 140 143 59 104 146 0
-100 53 98 56 143 59 104 146 0
-100 53 140 56 143 59 104 146 0
-100 98 140 56 143 59 104 146 0
-101 -54 -99 -141 -57 0
-101 -54 -99 -141 -144 0
-101 -54 -99 -141 -60 0
-101 -54 -99 -141 -105 0
-101 -54 -99 -141 -147 0
-101 -54 -99 -57 -144 0
-101 -54 -99 -57 -60 0
-101 -54 -99 -57 -105 0
-101 -54 -99 -57 -147 0
-101 -54 -99 -144 -60 0
-101 -54 -99 -144 -105 0
-101 -54 -99 -144 -147 0
-101 -54 -99 -60 -105 0
-101 -54 -99 -60 -147 0
-101 -54 -99 -105 -147 0
-101 -54 -141 -57 -144 0
-101 -54 -141 -57 -60 0
-101 -54 -141 -57 -105 0
-101 -54 -141 -57 -147 0
-101 -54 -141 -144 -60 0
-101 -54 -141 -144 -105 0
-101 -54 -141 -144 -147 0
-101 -54 -141 -60 -105 0
-101 -54 -141 -60 -147 0
-101 -54 -141 -105 -147 0
-101 -54 -57 -144 -60 0
-101 -54 -57 -144 -105 0
-101 -54 -57 -144 -147 0
-101 -54 -57 -60 -105 0
-101 -54 -57 -60 -147 0
-101 -54 -57 -105 -147 0
-101 -54 -144 -60 -105 0
-101 -54 -144 -60 -147 0
-101 -54 -144 -105 -147 0
-101 -54 -60 -105 -147 0
-101 -99 -141 -57 -144 0
-101 -99 -141 -57 -60 0
-101 -99 -141 -57 -105 0
-101 -99 -141 -57 -147 0
-101 -99 -141 -144 -60 0
-101 -99 -141 -144 -105 0
-101 -99 -141 -144 -147 0
-101 -99 -141 -60 -105 0
-101 -99 -141 -60 -147 0
-101 -99 -141 -105 -147 0
-101 -99 -57 -144 -60 0
-101 -99 -57 -144 -105 0
-101 -99 -57 -144 -147 0
-101 -99 -57 -60 -105 0
-101 -99 -57 -60 -147 0
-101 -99 -57 -105 -147 0
-101 -99 -144 -60 -105 0
-101 -99 -144 -60 -147 0
-101 -99 -144 -105 -147 0
-101 -99 -60 -105 -147 0
-101 -141 -57 -144 -60 0
-101 -141 -57 -144 -105 0
-101 -141 -57 -144 -147 0
-101 -141 -57 -60 -105 0
-101 -141 -57 -60 -147 0
-101 -141 -57 -105 -147 0
-101 -141 -144 -60 -105 0
-101 -141 -144 -60 -147 0
-101 -141 -144 -105 -147 0
-101 -141 -60 -105 -147 0
-101 -57 -144 -60 -105 0
-101 -57 -144 -60 -147 0
-101 -57 -144 -105 -147 0
-101 -57 -60 -105 -147 0
-101 -144 -60 -105 -147 0
-101 54 99 141 57 144 60 0
-101 54 99 141 57 144 105 0
-101 54 99 141 57 144 147 0
-101 54 99 141 57 60 105 0
-101 54 99 141 57 60 147 0
-101 54 99 141 57 105 147 0
-101 54 99 141 144 60 105 0
-101 54 99 141 144 60 147 0
-101 54 99 141 144 105 147 0
-101 54 99 141 60 105 147 0
-101 54 99 57 144 60 105 0
-101 54 99 57 144 60 147 0
-101 54 99 57 144 105 147 0
-101 54 99 57 60 105 147 0
-101 54 99 144 60 105 147 0
-101 54 141 57 144 60 105 0
-101 54 141 57 144 60 147 0
-101 54 141 57 144 105 147 0
-101 54 141 57 60 105 147 0
-101 54 141 144 60 105 147 0
-101 54 57 144 60 105 147 0
-101 99 141 57 144 60 105 0
-101 99 141 57 144 60 147 0
-101 99 141 57 144 105 147 0
-101 99 141 57 60 105 147 0
-101 99 141 144 60 105 147 0
-101 99 57 144 60 105 147 0
-101 141 57 144 60 105 147 0
-102 -52 -97 -139 -55 -142 0
-102 -52 -97 -139 -55 -58 0
-102 -52 -97 -139 -55 -103 0
-102 -52 -97 -139 -55 -145 0
-102 -52 -97 -139 -142 -58 0
-102 -52 -97 -139 -142 -103 0
-102 -52 -97 -139 -142 -145 0
-102 -52 -97 -139 -58 -103 0
-102 -52 -97 -139 -58 -145 0
-102 -52 -97 -139 -103 -145 0
-102 -52 -97 -55 -142 -58 0
-102 -52 -97 -55 -142 -103 0
-102 -52 -97 -55 -142 -145 0
-102 -52 -97 -55 -58 -103 0
-102 -52 -97 -55 -58 -145 0
-102 -52 -97 -55 -103 -145 0
-102 -52 -97 -142 -58 -103 0
-102 -52 -97 -142 -58 -145 0
-102 -52 -97 -142 -103 -145 0
-102 -52 -97 -58 -103 -145 0
-102 -52 -139 -55 -142 -58 0
-102 -52 -139 -55 -142 -103 0
-102 -52 -139 -55 -142 -145 0
-102 -52 -139 -55 -58 -103 0
-102 -52 -139 -55 -58 -145 0
-102 -52 -139 -55 -103 -145 0
-102 -52 -139 -142 -58 -103 0
-102 -52 -139 -142 -58 -145 0
-102 -52 -139 -142 -103 -145 0
-102 -52 -139 -58 -103 -145 0
-102 -52 -55 -142 -58 -103 0
-102 -52 -55 -142 -58 -145 0
-102 -52 -55 -142 -103 -145 0
-102 -52 -55 -58 -103 -145 0
-102 -52 -142 -58 -103 -145 0
-102 -97 -139 -55 -142 -58 0
-102 -97 -139 -55 -142 -103 0
-102 -97 -139 -55 -142 -145 0
-102 -97 -139 -55 -58 -103 0
-102 -97 -139 -55 -58 -145 0
-102 -97 -139 -55 -103 -145 0
-102 -97 -139 -142 -58 -103 0
-102 -97 -139 -142 -58 -145 0
-102 -97 -139 -142 -103 -145 0
-102 -97 -139 -58 -103 -145 0
-102 -97 -55 -142 -58 -103 0
-102 -97 -55 -142 -58 -145 0
-102 -97 -55 -142 -103 -145 0
-102 -97 -55 -58 -103 -145 0
-102 -97 -142 -58 -103 -145 0
-102 -139 -55 -142 -58 -103 0
-102 -139 -55 -142 -58 -145 0
-102 -139 -55 -142 -103 -145 0
-102 -139 -55 -58 -103 -145 0
-102 -139 -142 -58 -103 -145 0
-102 -55 -142 -58 -103 -145 0
-102 52 97 139 55 142 0
-102 52 97 139 55 58 0
-102 52 97 139 55 103 0
-102 52 97 139 55 145 0
-102 52 97 139 142 58 0
-102 52 97 139 142 103 0
-102 52 97 139 142 145 0
-102 52 97 139 58 103 0
-102 52 97 139 58 145 0
-102 52 97 139 103 145 0
-102 52 97 55 142 58 0
-102 52 97 55 142 103 0
-102 52 97 55 142 145 0
-102 52 97 55 58 103 0
-102 52 97 55 58 145 0
-102 52 97 55 103 145 0
-102 52 97 142 58 103 0
-102 52 97 142 58 145 0
-102 52 97 142 103 145 0
-102 52 97 58 103 145 0
-102 52 139 55 142 58 0
-102 52 139 55 142 103 0
-102 52 139 55 142 145 0
-102 52 139 55 58 103 0
-102 52 139 55 58 145 0
-102 52 139 55 103 145 0
-102 52 139 142 58 103 0
-102 52 139 142 58 145 0
-102 52 139 142 103 145 0
-102 52 139 58 103 145 0
-102 52 55 142 58 103 0
-102 52 55 142 58 145 0
-102 52 55 142 103 145 0
-102 52 55 58 103 145 0
-102 52 142 58 103 145 0
-102 97 139 55 142 58 0
-102 97 139 55 142 103 0
-102 97 139 55 142 145 0
-102 97 139 55 58 103 0
-102 97 139 55 58 145 0
-102 97 139 55 103 145 0
-102 97 139 142 58 103 0
-102 97 139 142 58 145 0
-102 97 139 142 103 145 0
-102 97 139 58 103 145 0
-102 97 55 142 58 103 0
-102 97 55 142 58 145 0
-102 97 55 142 103 145 0
-102 97 55 58 103 145 0
-102 97 142 58 103 145 0
-102 139 55 142 58 103 0
-102 139 55 142 58 145 0
-102 139 55 142 103 145 0
-102 139 55 58 103 145 0
-102 139 142 58 103 145 0
-102 55 142 58 103 145 0
-103 -104 0
-103 -105 0
-104 -105 0
-103 -56 -101 -143 0
-103 -56 -101 -59 0
-103 -56 -101 -146 0
-103 -56 -101 -62 0
-103 -56 -101 -107 0
-103 -56 -101 -149 0
-103 -56 -143 -59 0
-103 -56 -143 -146 0
-103 -56 -143 -62 0
-103 -56 -143 -107 0
-103 -56 -143 -149 0
-103 -56 -59 -146 0
-103 -56 -59 -62 0
-103 -56 -59 -107 0
-103 -56 -59 -149 0
-103 -56 -146 -62 0
-103 -56 -146 -107 0
-103 -56 -146 -149 0
-103 -56 -62 -107 0
-103 -56 -62 -149 0
-103 -56 -107 -149 0
-103 -101 -143 -59 0
-103 -101 -143 -146 0
-103 -101 -143 -62 0
-103 -101 -143 -107 0
-103 -101 -143 -149 0
-103 -101 -59 -146 0
-103 -101 -59 -62 0
-103 -101 -59 -107 0
-103 -101 -59 -149 0
-103 -101 -146 -62 0
-103 -101 -146 -107 0
-103 -101 -146 -149 0
-103 -101 -62 -107 0
-103 -101 -62 -149 0
-103 -101 -107 -149 0
-103 -143 -59 -146 0
-103 -143 -59 -62 0
-103 -143 -59 -107 0
-103 -143 -59 -149 0
-103 -143 -146 -62 0
-103 -143 -146 -107 0
-103 -143 -146 -149 0
-103 -143 -62 -107 0
-103 -143 -62 -149 0
-103 -143 -107 -149 0
-103 -59 -146 -62 0
-103 -59 -146 -107 0
-103 -59 -146 -149 0
-103 -59 -62 -107 0
-103 -59 -62 -149 0
-103 -59 -107 -149 0
-103 -146 -62 -107 0
-103 -146 -62 -149 0
-103 -146 -107 -149 0
-103 -62 -107 -149 0
-103 56 101 143 59 146 62 107 0
-103 56 101 143 59 146 62 149 0
-103 56 101 143 59 146 107 149 0
-103 56 101 143 59 62 107 149 0
-103 56 101 143 146 62 107 149 0
-103 56 101 59 146 62 107 149 0
-103 56 143 59 146 62 107 149 0
-103 101 143 59 146 62 107 149 0
-104 -57 -102 -144 -60 0
-104 -57 -102 -144 -147 0
-104 -57 -102 -144 -63 0
-104 -57 -102 -144 -108 0
-104 -57 -102 -144 -150 0
-104 -57 -102 -60 -147 0
-104 -57 -102 -60 -63 0
-104 -57 -102 -60 -108 0
-104 -57 -102 -60 -150 0
-104 -57 -102 -147 -63 0
-104 -57 -102 -147 -108 0
-104 -57 -102 -147 -150 0
-104 -57 -102 -63 -108 0
-104 -57 -102 -63 -150 0
-104 -57 -102 -108 -150 0
-104 -57 -144 -60 -147 0
-104 -57 -144 -60 -63 0
-104 -57 -144 -60 -108 0
-104 -57 -144 -60 -150 0
-104 -57 -144 -147 -63 0
-104 -57 -144 -147 -108 0
-104 -57 -144 -147 -150 0
-104 -57 -144 -63 -108 0
-104 -57 -144 -63 -150 0
-104 -57 -144 -108 -150 0
-104 -57 -60 -147 -63 0
-104 -57 -60 -147 -108 0
-104 -57 -60 -147 -150 0
-104 -57 -60 -63 -108 0
-104 -57 -60 -63 -150 0
-104 -57 -60 -108 -150 0
-104 -57 -147 -63 -108 0
-104 -57 -147 -63 -150 0
-104 -57 -147 -108 -150 0
-104 -57 -63 -108 -150 0
-104 -102 -144 -60 -147 0
-104 -102 -144 -60 -63 0
-104 -102 -144 -60 -108 0
-104 -102 -144 -60 -150 0
-104 -102 -144 -147 -63 0
-104 -102 -144 -147 -108 0
-104 -102 -144 -147 -150 0
-104 -102 -144 -63 -108 0
-104 -102 -144 -63 -150 0
-104 -102 -144 -108 -150 0
-104 -102 -60 -147 -63 0
-104 -102 -60 -147 -108 0
-104 -102 -60 -147 -150 0
-104 -102 -60 -63 -108 0
-104 -102 -60 -63 -150 0
-104 -102 -60 -108 -150 0
-104 -102 -147 -63 -108 0
-104 -102 -147 -63 -150 0
-104 -102 -147 -108 -150 0
-104 -102 -63 -108 -150 0
-104 -144 -60 -147 -63 0
-104 -144 -60 -147 -108 0
-104 -144 -60 -147 -150 0
-104 -144 -60 -63 -108 0
-104 -144 -60 -63 -150 0
-104 -144 -60 -108 -150 0
-104 -144 -147 -63 -108 0
-104 -144 -147 -63 -150 0
-104 -144 -147 -108 -150 0
-104 -144 -63 -108 -150 0
-104 -60 -147 -63 -108 0
-104 -60 -147 -63 -150 0
-104 -60 -147 -108 -150 0
-104 -60 -63 -108 -150 0
-104 -147 -63 -108 -150 0
-104 57 102 144 60 147 63 0
-104 57 102 144 60 147 108 0
-104 57 102 144 60 147 150 0
-104 57 102 144 60 63 108 0
-104 57 102 144 60 63 150 0
-104 57 102 144 60 108 150 0
-104 57 102 144 147 63 108 0
-104 57 102 144 147 63 150 0
-104 57 102 144 147 108 150 0
-104 57 102 144 63 108 150 0
-104 57 102 60 147 63 108 0
-104 57 102 60 147 63 150 0
-104 57 102 60 147 108 150 0
-104 57 102 60 63 108 150 0
-104 57 102 147 63 108 150 0
-104 57 144 60 147 63 108 0
-104 57 144 60 147 63 150 0
-104 57 144 60 147 108 150 0
-104 57 144 60 63 108 150 0
-104 57 144 147 63 108 150 0
-104 57 60 147 63 108 150 0
-104 102 144 60 147 63 108 0
-104 102 144 60 147 63 150 0
-104 102 144 60 147 108 150 0
-104 102 144 60 63 108 150 0
-104 102 144 147 63 108 150 0
-104 102 60 147 63 108 150 0
-104 144 60 147 63 108 150 0
-105 -55 -100 -142 -58 -145 0
-105 -55 -100 -142 -58 -61 0
-105 -55 -100 -142 -58 -106 0
-105 -55 -100 -142 -58 -148 0
-105 -55 -100 -142 -145 -61 0
-105 -55 -100 -142 -145 -106 0
-105 -55 -100 -142 -145 -148 0
-105 -55 -100 -142 -61 -106 0
-105 -55 -100 -142 -61 -148 0
-105 -55 -100 -142 -106 -148 0
-105 -55 -100 -58 -145 -61 0
-105 -55 -100 -58 -145 -106 0
-105 -55 -100 -58 -145 -148 0
-105 -55 -100 -58 -61 -106 0
-105 -55 -100 -58 -61 -148 0
-105 -55 -100 -58 -106 -148 0
-105 -55 -100 -145 -61 -106 0
-105 -55 -100 -145 -61 -148 0
-105 -55 -100 -145 -106 -148 0
-105 -55 -100 -61 -106 -148 0
-105 -55 -142 -58 -145 -61 0
-105 -55 -142 -58 -145 -106 0
-105 -55 -142 -58 -145 -148 0
-105 -55 -142 -58 -61 -106 0
-105 -55 -142 -58 -61 -148 0
-105 -55 -142 -58 -106 -148 0
-105 -55 -142 -145 -61 -106 0
-105 -55 -142 -145 -61 -148 0
-105 -55 -142 -145 -106 -148 0
-105 -55 -142 -61 -106 -148 0
-105 -55 -58 -145 -61 -106 0
-105 -55 -58 -145 -61 -148 0
-105 -55 -58 -145 -106 -148 0
-105 -55 -58 -61 -106 -148 0
-105 -55 -145 -61 -106 -148 0
-105 -100 -142 -58 -145 -61 0
-105 -100 -142 -58 -145 -106 0
-105 -100 -142 -58 -145 -148 0
-105 -100 -142 -58 -61 -106 0
-105 -100 -142 -58 -61 -148 0
-105 -100 -142 -58 -106 -148 0
-105 -100 -142 -145 -61 -106 0
-105 -100 -142 -145 -61 -148 0
-105 -100 -142 -145 -106 -148 0
-105 -100 -142 -61 -106 -148 0
-105 -100 -58 -145 -61 -106 0
-105 -100 -58 -145 -61 -148 0
-105 -100 -58 -145 -106 -148 0
-105 -100 -58 -61 -106 -148 0
-105 -100 -145 -61 -106 -148 0
-105 -142 -58 -145 -61 -106 0
-105 -142 -58 -145 -61 -148 0
-105 -142 -58 -145 -106 -148 0
-105 -142 -58 -61 -106 -148 0
-105 -142 -145 -61 -106 -148 0
-105 -58 -145 -61 -106 -148 0
-105 55 100 142 58 145 0
-105 55 100 142 58 61 0
-105 55 100 142 58 106 0
-105 55 100 142 58 148 0
-105 55 100 142 145 61 0
-105 55 100 142 145 106 0
-105 55 100 142 145 148 0
-105 55 100 142 61 106 0
-105 55 100 142 61 148 0
-105 55 100 142 106 148 0
-105 55 100 58 145 61 0
-105 55 100 58 145 106 0
-105 55 100 58 145 148 0
-105 55 100 58 61 106 0
-105 55 100 58 61 148 0
-105 55 100 58 106 148 0
-105 55 100 145 61 106 0
-105 55 100 145 61 148 0
-105 55 100 145 106 148 0
-105 55 100 61 106 148 0
-105 55 142 58 145 61 0
-105 55 142 58 145 106 0
-105 55 142 58 145 148 0
-105 55 142 58 61 106 0
-105 55 142 58 61 148 0
-105 55 142 58 106 148 0
-105 55 142 145 61 106 0
-105 55 142 145 61 148 0
-105 55 142 145 106 148 0
-105 55 142 61 106 148 0
-105 55 58 145 61 106 0
-105 55 58 145 61 148 0
-105 55 58 145 106 148 0
-105 55 58 61 106 148 0
-105 55 145 61 106 148 0
-105 100 142 58 145 61 0
-105 100 142 58 145 106 0
-105 100 142 58 145 148 0
-105 100 142 58 61 106 0
-105 100 142 58 61 148 0
-105 100 142 58 106 148 0
-105 100 142 145 61 106 0
-105 100 142 145 61 148 0
-105 100 142 145 106 148 0
-105 100 142 61 106 148 0
-105 100 58 145 61 106 0
-105 100 58 145 61 148 0
-105 100 58 145 106 148 0
-105 100 58 61 106 148 0
-105 100 145 61 106 148 0
-105 142 58 145 61 106 0
-105 142 58 145 61 148 0
-105 142 58 145 106 148 0
-105 142 58 61 106 148 0
-105 142 145 61 106 148 0
-105 58 145 61 106 148 0
-106 -107 0
-106 -108 0
-107 -108 0
-106 -59 -104 -146 0
-106 -59 -104 -62 0
-106 -59 -104 -149 0
-106 -59 -104 -65 0
-106 -59 -104 -110 0
-106 -59 -104 -152 0
-106 -59 -146 -62 0
-106 -59 -146 -149 0
-106 -59 -146 -65 0
-106 -59 -146 -110 0
-106 -59 -146 -152 0
-106 -59 -62 -149 0
-106 -59 -62 -65 0
-106 -59 -62 -110 0
-106 -59 -62 -152 0
-106 -59 -149 -65 0
-106 -59 -149 -110 0
-106 -59 -149 -152 0
-106 -59 -65 -110 0
-106 -59 -65 -152 0
-106 -59 -110 -152 0
-106 -104 -146 -62 0
-106 -104 -146 -149 0
-106 -104 -146 -65 0
-106 -104 -146 -110 0
-106 -104 -146 -152 0
-106 -104 -62 -149 0
-106 -104 -62 -65 0
-106 -104 -62 -110 0
-106 -104 -62 -152 0
-106 -104 -149 -65 0
-106 -104 -149 -110 0
-106 -104 -149 -152 0
-106 -104 -65 -110 0
-106 -104 -65 -152 0
-106 -104 -110 -152 0
-106 -146 -62 -149 0
-106 -146 -62 -65 0
-106 -146 -62 -110 0
-106 -146 -62 -152 0
-106 -146 -149 -65 0
-106 -146 -149 -110 0
-106 -146 -149 -152 0
-106 -146 -65 -110 0
-106 -146 -65 -152 0
-106 -146 -110 -152 0
-106 -62 -149 -65 0
-106 -62 -149 -110 0
-106 -62 -149 -152 0
-106 -62 -65 -110 0
-106 -62 -65 -152 0
-106 -62 -110 -152 0
-106 -149 -65 -110 0
-106 -149 -65 -152 0
-106 -149 -110 -152 0
-106 -65 -110 -152 0
-106 59 104 146 62 149 65 110 0
-106 59 104 146 62 149 65 152 0
-106 59 104 146 62 149 110 152 0
-106 59 104 146 62 65 110 152 0
-106 59 104 146 149 65 110 152 0
-106 59 104 62 149 65 110 152 0
-106 59 146 62 149 65 110 152 0
-106 104 146 62 149 65 110 152 0
-107 -60 -105 -147 -63 0
-107 -60 -105 -147 -150 0
-107 -60 -105 -147 -66 0
-107 -60 -105 -147 -111 0
-107 -60 -105 -147 -153 0
-107 -60 -105 -63 -150 0
-107 -60 -105 -63 -66 0
-107 -60 -105 -63 -111 0
-107 -60 -105 -63 -153 0
-107 -60 -105 -150 -66 0
-107 -60 -105 -150 -111 0
-107 -60 -105 -150 -153 0
-107 -60 -105 -66 -111 0
-107 -60 -105 -66 -153 0
-107 -60 -105 -111 -153 0
-107 -60 -147 -63 -150 0
-107 -60 -147 -63 -66 0
-107 -60 -147 -63 -111 0
-107 -60 -147 -63 -153 0
-107 -60 -147 -150 -66 0
-107 -60 -147 -150 -111 0
-107 -60 -147 -150 -153 0
-107 -60 -147 -66 -111 0
-107 -60 -147 -66 -153 0
-107 -60 -147 -111 -153 0
-107 -60 -63 -150 -66 0
-107 -60 -63 -150 -111 0
-107 -60 -63 -150 -153 0
-107 -60 -63 -66 -111 0
-107 -60 -63 -66 -153 0
-107 -60 -63 -111 -153 0
-107 -60 -150 -66 -111 0
-107 -60 -150 -66 -153 0
-107 -60 -150 -111 -153 0
-107 -60 -66 -111 -153 0
-107 -105 -147 -63 -150 0
-107 -105 -147 -63 -66 0
-107 -105 -147 -63 -111 0
-107 -105 -147 -63 -153 0
-107 -105 -147 -150 -66 0
-107 -105 -147 -150 -111 0
-107 -105 -147 -150 -153 0
-107 -105 -147 -66 -111 0
-107 -105 -147 -66 -153 0
-107 -105 -147 -111 -153 0
-107 -105 -63 -150 -66 0
-107 -105 -63 -150 -111 0
-107 -105 -63 -150 -153 0
-107 -105 -63 -66 -111 0
-107 -105 -63 -66 -153 0
-107 -105 -63 -111 -153 0
-107 -105 -150 -66 -111 0
-107 -105 -150 -66 -153 0
-107 -105 -150 -111 -153 0
-107 -105 -66 -111 -153 0
-107 -147 -63 -150 -66 0
-107 -147 -63 -150 -111 0
-107 -147 -63 -150 -153 0
-107 -147 -63 -66 -111 0
-107 -147 -63 -66 -153 0
-107 -147 -63 -111 -153 0
-107 -147 -150 -66 -111 0
-107 -147 -150 -66 -153 0
-107 -147 -150 -111 -153 0
-107 -147 -66 -111 -153 0
-107 -63 -150 -66 -111 0
-107 -63 -150 -66 -153 0
-107 -63 -150 -111 -153 0
-107 -63 -66 -111 -153 0
-107 -150 -66 -111 -153 0
-107 60 105 147 63 150 66 0
-107 60 105 147 63 150 111 0
-107 60 105 147 63 150 153 0
-107 60 105 147 63 66 111 0
-107 60 105 147 63 66 153 0
-107 60 105 147 63 111 153 0
-107 60 105 147 150 66 111 0
-107 60 105 147 150 66 153 0
-107 60 105 147 150 111 153 0
-107 60 105 147 66 111 153 0
-107 60 105 63 150 66 111 0
-107 60 105 63 150 66 153 0
-107 60 105 63 150 111 153 0
-107 60 105 63 66 111 153 0
-107 60 105 150 66 111 153 0
-107 60 147 63 150 66 111 0
-107 60 147 63 150 66 153 0
-107 60 147 63 150 111 153 0
-107 60 147 63 66 111 153 0
-107 60 147 150 66 111 153 0
-107 60 63 150 66 111 153 0
-107 105 147 63 150 66 111 0
-107 105 147 63 150 66 153 0
-107 105 147 63 150 111 153 0
-107 105 147 63 66 111 153 0
-107 105 147 150 66 111 153 0
-107 105 63 150 66 111 153 0
-107 147 63 150 66 111 153 0
-108 -58 -103 -145 -61 -148 0
-108 -58 -103 -145 -61 -64 0
-108 -58 -103 -145 -61 -109 0
-108 -58 -103 -145 -61 -151 0
-108 -58 -103 -145 -148 -64 0
-108 -58 -103 -145 -148 -109 0
-108 -58 -103 -145 -148 -151 0
-108 -58 -103 -145 -64 -109 0
-108 -58 -103 -145 -64 -151 0
-108 -58 -103 -145 -109 -151 0
-108 -58 -103 -61 -148 -64 0
-108 -58 -103 -61 -148 -109 0
-108 -58 -103 -61 -148 -151 0
-108 -58 -103 -61 -64 -109 0
-108 -58 -103 -61 -64 -151 0
-108 -58 -103 -61 -109 -151 0
-108 -58 -103 -148 -64 -109 0
-108 -58 -103 -148 -64 -151 0
-108 -58 -103 -148 -109 -151 0
-108 -58 -103 -64 -109 -151 0
-108 -58 -145 -61 -148 -64 0
-108 -58 -145 -61 -148 -109 0
-108 -58 -145 -61 -148 -151 0
-108 -58 -145 -61 -64 -109 0
-108 -58 -145 -61 -64 -151 0
-108 -58 -145 -61 -109 -151 0
-108 -58 -145 -148 -64 -109 0
-108 -58 -145 -148 -64 -151 0
-108 -58 -145 -148 -109 -151 0
-108 -58 -145 -64 -109 -151 0
-108 -58 -61 -148 -64 -109 0
-108 -58 -61 -148 -64 -151 0
-108 -58 -61 -148 -109 -151 0
-108 -58 -61 -64 -109 -151 0
-108 -58 -148 -64 -109 -151 0
-108 -103 -145 -61 -148 -64 0
-108 -103 -145 -61 -148 -109 0
-108 -103 -145 -61 -148 -151 0
-108 -103 -145 -61 -64 -109 0
-108 -103 -145 -61 -64 -151 0
-108 -103 -145 -61 -109 -151 0
-108 -103 -145 -148 -64 -109 0
-108 -103 -145 -148 -64 -151 0
-108 -103 -145 -148 -109 -151 0
-108 -103 -145 -64 -109 -151 0
-108 -103 -61 -148 -64 -109 0
-108 -103 -61 -148 -64 -151 0
-108 -103 -61 -148 -109 -151 0
-108 -103 -61 -64 -109 -151 0
-108 -103 -148 -64 -109 -151 0
-108 -145 -61 -148 -64 -109 0
-108 -145 -61 -148 -64 -151 0
-108 -145 -61 -148 -109 -151 0
-108 -145 -61 -64 -109 -151 0
-108 -145 -148 -64 -109 -151 0
-108 -61 -148 -64 -109 -151 0
-108 58 103 145 61 148 0
-108 58 103 145 61 64 0
-108 58 103 145 61 109 0
-108 58 103 145 61 151 0
-108 58 103 145 148 64 0
-108 58 103 145 148 109 0
-108 58 103 145 148 151 0
-108 58 103 145 64 109 0
-108 58 103 145 64 151 0
-108 58 103 145 109 151 0
-108 58 103 61 148 64 0
-108 58 103 61 148 109 0
-108 58 103 61 148 151 0
-108 58 103 61 64 109 0
-108 58 103 61 64 151 0
-108 58 103 61 109 151 0
-108 58 103 148 64 109 0
-108 58 103 148 64 151 0
-108 58 103 148 109 151 0
-108 58 103 64 109 151 0
-108 58 145 61 148 64 0
-108 58 145 61 148 109 0
-108 58 145 61 148 151 0
-108 58 145 61 64 109 0
-108 58 145 61 64 151 0
-108 58 145 61 109 151 0
-108 58 145 148 64 109 0
-108 58 145 148 64 151 0
-108 58 145 148 109 151 0
-108 58 145 64 109 151 0
-108 58 61 148 64 109 0
-108 58 61 148 64 151 0
-108 58 61 148 109 151 0
-108 58 61 64 109 151 0
-108 58 148 64 109 151 0
-108 103 145 61 148 64 0
-108 103 145 61 148 109 0
-108 103 145 61 148 151 0
-108 103 145 61 64 109 0
-108 103 145 61 64 151 0
-108 103 145 61 109 151 0
-108 103 145 148 64 109 0
-108 103 145 148 64 151 0
-108 103 145 148 109 151 0
-108 103 145 64 109 151 0
-108 103 61 148 64 109 0
-108 103 61 148 64 151 0
-108 103 61 148 109 151 0
-108 103 61 64 109 151 0
-108 103 148 64 109 151 0
-108 145 61 148 64 109 0
-108 145 61 148 64 151 0
-108 145 61 148 109 151 0
-108 145 61 64 109 151 0
-108 145 148 64 109 151 0
-108 61 148 64 109 151 0
-109 -110 0
-109 -111 0
-110 -111 0
-109 -62 -107 -149 0
-109 -62 -107 -65 0
-109 -62 -107 -152 0
-109 -62 -107 -68 0
-109 -62 -107 -113 0
-109 -62 -107 -155 0
-109 -62 -149 -65 0
-109 -62 -149 -152 0
-109 -62 -149 -68 0
-109 -62 -149 -113 0
-109 -62 -149 -155 0
-109 -62 -65 -152 0
-109 -62 -65 -68 0
-109 -62 -65 -113 0
-109 -62 -65 -155 0
-109 -62 -152 -68 0
-109 -62 -152 -113 0
-109 -62 -152 -155 0
-109 -62 -68 -113 0
-109 -62 -68 -155 0
-109 -62 -113 -155 0
-109 -107 -149 -65 0
-109 -107 -149 -152 0
-109 -107 -149 -68 0
-109 -107 -149 -113 0
-109 -107 -149 -155 0
-109 -107 -65 -152 0
-109 -107 -65 -68 0
-109 -107 -65 -113 0
-109 -107 -65 -155 0
-109 -107 -152 -68 0
-109 -107 -152 -113 0
-109 -107 -152 -155 0
-109 -107 -68 -113 0
-109 -107 -68 -155 0
-109 -107 -113 -155 0
-109 -149 -65 -152 0
-109 -149 -65 -68 0
-109 -149 -65 -113 0
-109 -149 -65 -155 0
-109 -149 -152 -68 0
-109 -149 -152 -113 0
-109 -149 -152 -155 0
-109 -149 -68 -113 0
-109 -149 -68 -155 0
-109 -149 -113 -155 0
-109 -65 -152 -68 0
-109 -65 -152 -113 0
-109 -65 -152 -155 0
-109 -65 -68 -113 0
-109 -65 -68 -155 0
-109 -65 -113 -155 0
-109 -152 -68 -113 0
-109 -152 -68 -155 0
-109 -152 -113 -155 0
-109 -68 -113 -155 0
-109 62 107 149 65 152 68 113 0
-109 62 107 149 65 152 68 155 0
-109 62 107 149 65 152 113 155 0
-109 62 107 149 65 68 113 155 0
-109 62 107 149 152 68 113 155 0
-109 62 107 65 152 68 113 155 0
-109 62 149 65 152 68 113 155 0
-109 107 149 65 152 68 113 155 0
-110 -63 -108 -150 -66 0
-110 -63 -108 -150 -153 0
-110 -63 -108 -150 -69 0
-110 -63 -108 -150 -114 0
-110 -63 -108 -150 -156 0
-110 -63 -108 -66 -153 0
-110 -63 -108 -66 -69 0
-110 -63 -108 -66 -114 0
-110 -63 -108 -66 -156 0
-110 -63 -108 -153 -69 0
-110 -63 -108 -153 -114 0
-110 -63 -108 -153 -156 0
-110 -63 -108 -69 -114 0
-110 -63 -108 -69 -156 0
-110 -63 -108 -114 -156 0
-110 -63 -150 -66 -153 0
-110 -63 -150 -66 -69 0
-110 -63 -150 -66 -114 0
-110 -63 -150 -66 -156 0
-110 -63 -150 -153 -69 0
-110 -63 -150 -153 -114 0
-110 -63 -150 -153 -156 0
-110 -63 -150 -69 -114 0
-110 -63 -150 -69 -156 0
-110 -63 -150 -114 -156 0
-110 -63 -66 -153 -69 0
-110 -63 -66 -153 -114 0
-110 -63 -66 -153 -156 0
-110 -63 -66 -69 -114 0
-110 -63 -66 -69 -156 0
-110 -63 -66 -114 -156 0
-110 -63 -153 -69 -114 0
-110 -63 -153 -69 -156 0
-110 -63 -153 -114 -156 0
-110 -63 -69 -114 -156 0
-110 -108 -150 -66 -153 0
-110 -108 -150 -66 -69 0
-110 -108 -150 -66 -114 0
-110 -108 -150 -66 -156 0
-110 -108 -150 -153 -69 0
-110 -108 -150 -153 -114 0
-110 -108 -150 -153 -156 0
-110 -108 -150 -69 -114 0
-110 -108 -150 -69 -156 0
-110 -108 -150 -114 -156 0
-110 -108 -66 -153 -69 0
-110 -108 -66 -153 -114 0
-110 -108 -66 -153 -156 0
-110 -108 -66 -69 -114 0
-110 -108 -66 -69 -156 0
-110 -108 -66 -114 -156 0
-110 -108 -153 -69 -114 0
-110 -108 -153 -69 -156 0
-110 -108 -153 -114 -156 0
-110 -108 -69 -114 -156 0
-110 -150 -66 -153 -69 0
-110 -150 -66 -153 -114 0
-110 -150 -66 -153 -156 0
-110 -150 -66 -69 -114 0
-110 -150 -66 -69 -156 0
-110 -150 -66 -114 -156 0
-110 -150 -153 -69 -114 0
-110 -150 -153 -69 -156 0
-110 -150 -153 -114 -156 0
-110 -150 -69 -114 -156 0
-110 -66 -153 -69 -114 0
-110 -66 -153 -69 -156 0
-110 -66 -153 -114 -156 0
-110 -66 -69 -114 -156 0
-110 -153 -69 -114 -156 0
-110 63 108 150 66 153 69 0
-110 63 108 150 66 153 114 0
-110 63 108 150 66 153 156 0
-110 63 108 150 66 69 114 0
-110 63 108 150 66 69 156 0
-110 63 108 150 66 114 156 0
-110 63 108 150 153 69 114 0
-110 63 108 150 153 69 156 0
-110 63 108 150 153 114 156 0
-110 63 108 150 69 114 156 0
-110 63 108 66 153 69 114 0
-110 63 108 66 153 69 156 0
-110 63 108 66 153 114 156 0
-110 63 108 66 69 114 156 0
-110 63 108 153 69 114 156 0
-110 63 150 66 153 69 114 0
-110 63 150 66 153 69 156 0
-110 63 150 66 153 114 156 0
-110 63 150 66 69 114 156 0
-110 63 150 153 69 114 156 0
-110 63 66 153 69 114 156 0
-110 108 150 66 153 69 114 0
-110 108 150 66 153 69 156 0
-110 108 150 66 153 114 156 0
-110 108 150 66 69 114 156 0
-110 108 150 153 69 114 156 0
-110 108 66 153 69 114 156 0
-110 150 66 153 69 114 156 0
-111 -61 -106 -148 -64 -151 0
-111 -61 -106 -148 -64 -67 0
-111 -61 -106 -148 -64 -112 0
-111 -61 -106 -148 -64 -154 0
-111 -61 -106 -148 -151 -67 0
-111 -61 -106 -148 -151 -112 0
-111 -61 -106 -148 -151 -154 0
-111 -61 -106 -148 -67 -112 0
-111 -61 -106 -148 -67 -154 0
-111 -61 -106 -148 -112 -154 0
-111 -61 -106 -64 -151 -67 0
-111 -61 -106 -64 -151 -112 0
-111 -61 -106 -64 -151 -154 0
-111 -61 -106 -64 -67 -112 0
-111 -61 -106 -64 -67 -154 0
-111 -61 -106 -64 -112 -154 0
-111 -61 -106 -151 -67 -112 0
-111 -61 -106 -151 -67 -154 0
-111 -61 -106 -151 -112 -154 0
-111 -61 -106 -67 -112 -154 0
-111 -61 -148 -64 -151 -67 0
-111 -61 -148 -64 -151 -112 0
-111 -61 -148 -64 -151 -154 0
-111 -61 -148 -64 -67 -112 0
-111 -61 -148 -64 -67 -154 0
-111 -61 -148 -64 -112 -154 0
-111 -61 -148 -151 -67 -112 0
-111 -61 -148 -151 -67 -154 0
-111 -61 -148 -151 -112 -154 0
-111 -61 -148 -67 -112 -154 0
-111 -61 -64 -151 -67 -112 0
-111 -61 -64 -151 -67 -154 0
-111 -61 -64 -151 -112 -154 0
-111 -61 -64 -67 -112 -154 0
-111 -61 -151 -67 -112 -154 0
-111 -106 -148 -64 -151 -67 0
-111 -106 -148 -64 -151 -112 0
-111 -106 -148 -64 -151 -154 0
-111 -106 -148 -64 -67 -112 0
-111 -106 -148 -64 -67 -154 0
-111 -106 -148 -64 -112 -154 0
-111 -106 -148 -151 -67 -112 0
-111 -106 -148 -151 -67 -154 0
-111 -106 -148 -151 -112 -154 0
-111 -106 -148 -67 -112 -154 0
-111 -106 -64 -151 -67 -112 0
-111 -106 -64 -151 -67 -154 0
-111 -106 -64 -151 -112 -154 0
-111 -106 -64 -67 -112 -154 0
-111 -106 -151 -67 -112 -154 0
-111 -148 -64 -151 -67 -112 0
-111 -148 -64 -151 -67 -154 0
-111 -148 -64 -151 -112 -154 0
-111 -148 -64 -67 -112 -154 0
-111 -148 -151 -67 -112 -154 0
-111 -64 -151 -67 -112 -154 0
-111 61 106 148 64 151 0
-111 61 106 148 64 67 0
-111 61 106 148 64 112 0
-111 61 106 148 64 154 0
-111 61 106 148 151 67 0
-111 61 106 148 151 112 0
-111 61 106 148 151 154 0
-111 61 106 148 67 112 0
-111 61 106 148 67 154 0
-111 61 106 148 112 154 0
-111 61 106 64 151 67 0
-111 61 106 64 151 112 0
-111 61 106 64 151 154 0
-111 61 106 64 67 112 0
-111 61 106 64 67 154 0
-111 61 106 64 112 154 0
-111 61 106 151 67 112 0
-111 61 106 151 67 154 0
-111 61 106 151 112 154 0
-111 61 106 67 112 154 0
-111 61 148 64 151 67 0
-111 61 148 64 151 112 0
-111 61 148 64 151 154 0
-111 61 148 64 67 112 0
-111 61 148 64 67 154 0
-111 61 148 64 112 154 0
-111 61 148 151 67 112 0
-111 61 148 151 67 154 0
-111 61 148 151 112 154 0
-111 61 148 67 112 154 0
-111 61 64 151 67 112 0
-111 61 64 151 67 154 0
-111 61 64 151 112 154 0
-111 61 64 67 112 154 0
-111 61 151 67 112 154 0
-111 106 148 64 151 67 0
-111 106 148 64 151 112 0
-111 106 148 64 151 154 0
-111 106 148 64 67 112 0
-111 106 148 64 67 154 0
-111 106 148 64 112 154 0
-111 106 148 151 67 112 0
-111 106 148 151 67 154 0
-111 106 148 151 112 154 0
-111 106 148 67 112 154 0
-111 106 64 151 67 112 0
-111 106 64 151 67 154 0
-111 106 64 151 112 154 0
-111 106 64 67 112 154 0
-111 106 151 67 112 154 0
-111 148 64 151 67 112 0
-111 148 64 151 67 154 0
-111 148 64 151 112 154 0
-111 148 64 67 112 154 0
-111 148 151 67 112 154 0
-111 64 151 67 112 154 0
-112 -113 0
-112 -114 0
-113 -114 0
-112 -65 -110 -152 0
-112 -65 -110 -68 0
-112 -65 -110 -155 0
-112 -65 -110 -71 0
-112 -65 -110 -116 0
-112 -65 -110 -158 0
-112 -65 -152 -68 0
-112 -65 -152 -155 0
-112 -65 -152 -71 0
-112 -65 -152 -116 0
-112 -65 -152 -158 0
-112 -65 -68 -155 0
-112 -65 -68 -71 0
-112 -65 -68 -116 0
-112 -65 -68 -158 0
-112 -65 -155 -71 0
-112 -65 -155 -116 0
-112 -65 -155 -158 0
-112 -65 -71 -116 0
-112 -65 -71 -158 0
-112 -65 -116 -158 0
-112 -110 -152 -68 0
-112 -110 -152 -155 0
-112 -110 -152 -71 0
-112 -110 -152 -116 0
-112 -110 -152 -158 0
-112 -110 -68 -155 0
-112 -110 -68 -71 0
-112 -110 -68 -116 0
-112 -110 -68 -158 0
-112 -110 -155 -71 0
-112 -110 -155 -116 0
-112 -110 -155 -158 0
-112 -110 -71 -116 0
-112 -110 -71 -158 0
-112 -110 -116 -158 0
-112 -152 -68 -155 0
-112 -152 -68 -71 0
-112 -152 -68 -116 0
-112 -152 -68 -158 0
-112 -152 -155 -71 0
-112 -152 -155 -116 0
-112 -152 -155 -158 0
-112 -152 -71 -116 0
-112 -152 -71 -158 0
-112 -152 -116 -158 0
-112 -68 -155 -71 0
-112 -68 -155 -116 0
-112 -68 -155 -158 0
-112 -68 -71 -116 0
-112 -68 -71 -158 0
-112 -68 -116 -158 0
-112 -155 -71 -116 0
-112 -155 -71 -158 0
-112 -155 -116 -158 0
-112 -71 -116 -158 0
-112 65 110 152 68 155 71 116 0
-112 65 110 152 68 155 71 158 0
-112 65 110 152 68 155 116 158 0
-112 65 110 152 68 71 116 158 0
-112 65 110 152 155 71 116 158 0
-112 65 110 68 155 71 116 158 0
-112 65 152 68 155 71 116 158 0
-112 110 152 68 155 71 116 158 0
-113 -66 -111 -153 -69 0
-113 -66 -111 -153 -156 0
-113 -66 -111 -153 -72 0
-113 -66 -111 -153 -117 0
-113 -66 -111 -153 -159 0
-113 -66 -111 -69 -156 0
-113 -66 -111 -69 -72 0
-113 -66 -111 -69 -117 0
-113 -66 -111 -69 -159 0
-113 -66 -111 -156 -72 0
-113 -66 -111 -156 -117 0
-113 -66 -111 -156 -159 0
-113 -66 -111 -72 -117 0
-113 -66 -111 -72 -159 0
-113 -66 -111 -117 -159 0
-113 -66 -153 -69 -156 0
-113 -66 -153 -69 -72 0
-113 -66 -153 -69 -117 0
-113 -66 -153 -69 -159 0
-113 -66 -153 -156 -72 0
-113 -66 -153 -156 -117 0
-113 -66 -153 -156 -159 0
-113 -66 -153 -72 -117 0
-113 -66 -153 -72 -159 0
-113 -66 -153 -117 -159 0
-113 -66 -69 -156 -72 0
-113 -66 -69 -156 -117 0
-113 -66 -69 -156 -159 0
-113 -66 -69 -72 -117 0
-113 -66 -69 -72 -159 0
-113 -66 -69 -117 -159 0
-113 -66 -156 -72 -117 0
-113 -66 -156 -72 -159 0
-113 -66 -156 -117 -159 0
-113 -66 -72 -117 -159 0
-113 -111 -153 -69 -156 0
-113 -111 -153 -69 -72 0
-113 -111 -153 -69 -117 0
-113 -111 -153 -69 -159 0
-113 -111 -153 -156 -72 0
-113 -111 -153 -156 -117 0
-113 -111 -153 -156 -159 0
-113 -111 -153 -72 -117 0
-113 -111 -153 -72 -159 0
-113 -111 -153 -117 -159 0
-113 -111 -69 -156 -72 0
-113 -111 -69 -156 -117 0
-113 -111 -69 -156 -159 0
-113 -111 -69 -72 -117 0
-113 -111 -69 -72 -159 0
-113 -111 -69 -117 -159 0
-113 -111 -156 -72 -117 0
-113 -111 -156 -72 -159 0
-113 -111 -156 -117 -159 0
-113 -111 -72 -117 -159 0
-113 -153 -69 -156 -72 0
-113 -153 -69 -156 -117 0
-113 -153 -69 -156 -159 0
-113 -153 -69 -72 -117 0
-113 -153 -69 -72 -159 0
-113 -153 -69 -117 -159 0
-113 -153 -156 -72 -117 0
-113 -153 -156 -72 -159 0
-113 -153 -156 -117 -159 0
-113 -153 -72 -117 -159 0
-113 -69 -156 -72 -117 0
-113 -69 -156 -72 -159 0
-113 -69 -156 -117 -159 0
-113 -69 -72 -117 -159 0
-113 -156 -72 -117 -159 0
-113 66 111 153 69 156 72 0
-113 66 111 153 69 156 117 0
-113 66 111 153 69 156 159 0
-113 66 111 153 69 72 117 0
-113 66 111 153 69 72 159 0
-113 66 111 153 69 117 159 0
-113 66 111 153 156 72 117 0
-113 66 111 153 156 72 159 0
-113 66 111 153 156 117 159 0
-113 66 111 153 72 117 159 0
-113 66 111 69 156 72 117 0
-113 66 111 69 156 72 159 0
-113 66 111 69 156 117 159 0
-113 66 111 69 72 117 159 0
-113 66 111 156 72 117 159 0
-113 66 153 69 156 72 117 0
-113 66 153 69 156 72 159 0
-113 66 153 69 156 117 159 0
-113 66 153 69 72 117 159 0
-113 66 153 156 72 117 159 0
-113 66 69 156 72 117 159 0
-113 111 153 69 156 72 117 0
-113 111 153 69 156 72 159 0
-113 111 153 69 156 117 159 0
-113 111 153 69 72 117 159 0
-113 111 153 156 72 117 159 0
-113 111 69 156 72 117 159 0
-113 153 69 156 72 117 159 0
-114 -64 -109 -151 -67 -154 0
-114 -64 -109 -151 -67 -70 0
-114 -64 -109 -151 -67 -115 0
-114 -64 -109 -151 -67 -157 0
-114 -64 -109 -151 -154 -70 0
-114 -64 -109 -151 -154 -115 0
-114 -64 -109 -151 -154 -157 0
-114 -64 -109 -151 -70 -115 0
-114 -64 -109 -151 -70 -157 0
-114 -64 -109 -151 -115 -157 0
-114 -64 -109 -67 -154 -70 0
-114 -64 -109 -67 -154 -115 0
-114 -64 -109 -67 -154 -157 0
-114 -64 -109 -67 -70 -115 0
-114 -64 -109 -67 -70 -157 0
-114 -64 -109 -67 -115 -157 0
-114 -64 -109 -154 -70 -115 0
-114 -64 -109 -154 -70 -157 0
-114 -64 -109 -154 -115 -157 0
-114 -64 -109 -70 -115 -157 0
-114 -64 -151 -67 -154 -70 0
-114 -64 -151 -67 -154 -115 0
-114 -64 -151 -67 -154 -157 0
-114 -64 -151 -67 -70 -115 0
-114 -64 -151 -67 -70 -157 0
-114 -64 -151 -67 -115 -157 0
-114 -64 -151 -154 -70 -115 0
-114 -64 -151 -154 -70 -157 0
-114 -64 -151 -154 -115 -157 0
-114 -64 -151 -70 -115 -157 0
-114 -64 -67 -154 -70 -115 0
-114 -64 -67 -154 -70 -157 0
-114 -64 -67 -154 -115 -157 0
-114 -64 -67 -70 -115 -157 0
-114 -64 -154 -70 -115 -157 0
-114 -109 -151 -67 -154 -70 0
-114 -109 -151 -67 -154 -115 0
-114 -109 -151 -67 -154 -157 0
-114 -109 -151 -67 -70 -115 0
-114 -109 -151 -67 -70 -157 0
-114 -109 -151 -67 -115 -157 0
-114 -109 -151 -154 -70 -115 0
-114 -109 -151 -154 -70 -157 0
-114 -109 -151 -154 -115 -157 0
-114 -109 -151 -70 -115 -157 0
-114 -109 -67 -154 -70 -115 0
-114 -109 -67 -154 -70 -157 0
-114 -109 -67 -154 -115 -157 0
-114 -109 -67 -70 -115 -157 0
-114 -109 -154 -70 -115 -157 0
-114 -151 -67 -154 -70 -115 0
-114 -151 -67 -154 -70 -157 0
-114 -151 -67 -154 -115 -157 0
-114 -151 -67 -70 -115 -157 0
-114 -151 -154 -70 -115 -157 0
-114 -67 -154 -70 -115 -157 0
-114 64 109 151 67 154 0
-114 64 109 151 67 70 0
-114 64 109 151 67 115 0
-114 64 109 151 67 157 0
-114 64 109 151 154 70 0
-114 64 109 151 154 115 0
-114 64 109 151 154 157 0
-114 64 109 151 70 115 0
-114 64 109 151 70 157 0
-114 64 109 151 115 157 0
-114 64 109 67 154 70 0
-114 64 109 67 154 115 0
-114 64 109 67 154 157 0
-114 64 109 67 70 115 0
-114 64 109 67 70 157 0
-114 64 109 67 115 157 0
-114 64 109 154 70 115 0
-114 64 109 154 70 157 0
-114 64 109 154 115 157 0
-114 64 109 70 115 157 0
-114 64 151 67 154 70 0
-114 64 151 67 154 115 0
-114 64 151 67 154 157 0
-114 64 151 67 70 115 0
-114 64 151 67 70 157 0
-114 64 151 67 115 157 0
-114 64 151 154 70 115 0
-114 64 151 154 70 157 0
-114 64 151 154 115 157 0
-114 64 151 70 115 157 0
-114 64 67 154 70 115 0
-114 64 67 154 70 157 0
-114 64 67 154 115 157 0
-114 64 67 70 115 157 0
-114 64 154 70 115 157 0
-114 109 151 67 154 70 0
-114 109 151 67 154 115 0
-114 109 151 67 154 157 0
-114 109 151 67 70 115 0
-114 109 151 67 70 157 0
-114 109 151 67 115 157 0
-114 109 151 154 70 115 0
-114 109 151 154 70 157 0
-114 109 151 154 115 157 0
-114 109 151 70 115 157 0
-114 109 67 154 70 115 0
-114 109 67 154 70 157 0
-114 109 67 154 115 157 0
-114 109 67 70 115 157 0
-114 109 154 70 115 157 0
-114 151 67 154 70 115 0
-114 151 67 154 70 157 0
-114 151 67 154 115 157 0
-114 151 67 70 115 157 0
-114 151 154 70 115 157 0
-114 67 154 70 115 157 0
-115 -116 0
-115 -117 0
-116 -117 0
-115 -68 -113 -155 0
-115 -68 -113 -71 0
-115 -68 -113 -158 0
-115 -68 -113 -74 0
-115 -68 -113 -119 0
-115 -68 -113 -161 0
-115 -68 -155 -71 0
-115 -68 -155 -158 0
-115 -68 -155 -74 0
-115 -68 -155 -119 0
-115 -68 -155 -161 0
-115 -68 -71 -158 0
-115 -68 -71 -74 0
-115 -68 -71 -119 0
-115 -68 -71 -161 0
-115 -68 -158 -74 0
-115 -68 -158 -119 0
-115 -68 -158 -161 0
-115 -68 -74 -119 0
-115 -68 -74 -161 0
-115 -68 -119 -161 0
-115 -113 -155 -71 0
-115 -113 -155 -158 0
-115 -113 -155 -74 0
-115 -113 -155 -119 0
-115 -113 -155 -161 0
-115 -113 -71 -158 0
-115 -113 -71 -74 0
-115 -113 -71 -119 0
-115 -113 -71 -161 0
-115 -113 -158 -74 0
-115 -113 -158 -119 0
-115 -113 -158 -161 0
-115 -113 -74 -119 0
-115 -113 -74 -161 0
-115 -113 -119 -161 0
-115 -155 -71 -158 0
-115 -155 -71 -74 0
-115 -155 -71 -119 0
-115 -155 -71 -161 0
-115 -155 -158 -74 0
-115 -155 -158 -119 0
-115 -155 -158 -161 0
-115 -155 -74 -119 0
-115 -155 -74 -161 0
-115 -155 -119 -161 0
-115 -71 -158 -74 0
-115 -71 -158 -119 0
-115 -71 -158 -161 0
-115 -71 -74 -119 0
-115 -71 -74 -161 0
-115 -71 -119 -161 0
-115 -158 -74 -119 0
-115 -158 -74 -161 0
-115 -158 -119 -161 0
-115 -74 -119 -161 0
-115 68 113 155 71 158 74 119 0
-115 68 113 155 71 158 74 161 0
-115 68 113 155 71 158 119 161 0
-115 68 113 155 71 74 119 161 0
-115 68 113 155 158 74 119 161 0
-115 68 113 71 158 74 119 161 0
-115 68 155 71 158 74 119 161 0
-115 113 155 71 158 74 119 161 0
-116 -69 -114 -156 -72 0
-116 -69 -114 -156 -159 0
-116 -69 -114 -156 -75 0
-116 -69 -114 -156 -120 0
-116 -69 -114 -156 -162 0
-116 -69 -114 -72 -159 0
-116 -69 -114 -72 -75 0
-116 -69 -114 -72 -120 0
-116 -69 -114 -72 -162 0
-116 -69 -114 -159 -75 0
-116 -69 -114 -159 -120 0
-116 -69 -114 -159 -162 0
-116 -69 -114 -75 -120 0
-116 -69 -114 -75 -162 0
-116 -69 -114 -120 -162 0
-116 -69 -156 -72 -159 0
-116 -69 -156 -72 -75 0
-116 -69 -156 -72 -120 0
-116 -69 -156 -72 -162 0
-116 -69 -156 -159 -75 0
-116 -69 -156 -159 -120 0
-116 -69 -156 -159 -162 0
-116 -69 -156 -75 -120 0
-116 -69 -156 -75 -162 0
-116 -69 -156 -120 -162 0
-116 -69 -72 -159 -75 0
-116 -69 -72 -159 -120 0
-116 -69 -72 -159 -162 0
-116 -69 -72 -75 -120 0
-116 -69 -72 -75 -162 0
-116 -69 -72 -120 -162 0
-116 -69 -159 -75 -120 0
-116 -69 -159 -75 -162 0
-116 -69 -159 -120 -162 0
-116 -69 -75 -120 -162 0
-116 -114 -156 -72 -159 0
-116 -114 -156 -72 -75 0
-116 -114 -156 -72 -120 0
-116 -114 -156 -72 -162 0
-116 -114 -156 -159 -75 0
-116 -114 -156 -159 -120 0
-116 -114 -156 -159 -162 0
-116 -114 -156 -75 -120 0
-116 -114 -156 -75 -162 0
-116 -114 -156 -120 -162 0
-116 -114 -72 -159 -75 0
-116 -114 -72 -159 -120 0
-116 -114 -72 -159 -162 0
-116 -114 -72 -75 -120 0
-116 -114 -72 -75 -162 0
-116 -114 -72 -120 -162 0
-116 -114 -159 -75 -120 0
-116 -114 -159 -75 -162 0
-116 -114 -159 -120 -162 0
-116 -114 -75 -120 -162 0
-116 -156 -72 -159 -75 0
-116 -156 -72 -159 -120 0
-116 -156 -72 -159 -162 0
-116 -156 -72 -75 -120 0
-116 -156 -72 -75 -162 0
-116 -156 -72 -120 -162 0
-116 -156 -159 -75 -120 0
-116 -156 -159 -75 -162 0
-116 -156 -159 -120 -162 0
-116 -156 -75 -120 -162 0
-116 -72 -159 -75 -120 0
-116 -72 -159 -75 -162 0
-116 -72 -159 -120 -162 0
-116 -72 -75 -120 -162 0
-116 -159 -75 -120 -162 0
-116 69 114 156 72 159 75 0
-116 69 114 156 72 159 120 0
-116 69 114 156 72 159 162 0
-116 69 114 156 72 75 120 0
-116 69 114 156 72 75 162 0
-116 69 114 156 72 120 162 0
-116 69 114 156 159 75 120 0
-116 69 114 156 159 75 162 0
-116 69 114 156 159 120 162 0
-116 69 114 156 75 120 162 0
-116 69 114 72 159 75 120 0
-116 69 114 72 159 75 162 0
-116 69 114 72 159 120 162 0
-116 69 114 72 75 120 162 0
-116 69 114 159 75 120 162 0
-116 69 156 72 159 75 120 0
-116 69 156 72 159 75 162 0
-116 69 156 72 159 120 162 0
-116 69 156 72 75 120 162 0
-116 69 156 159 75 120 162 0
-116 69 72 159 75 120 162 0
-116 114 156 72 159 75 120 0
-116 114 156 72 159 75 162 0
-116 114 156 72 159 120 162 0
-116 114 156 72 75 120 162 0
-116 114 156 159 75 120 162 0
-116 114 72 159 75 120 162 0
-116 156 72 159 75 120 162 0
-117 -67 -112 -154 -70 -157 0
-117 -67 -112 -154 -70 -73 0
-117 -67 -112 -154 -70 -118 0
-117 -67 -112 -154 -70 -160 0
-117 -67 -112 -154 -157 -73 0
-117 -67 -112 -154 -157 -118 0
-117 -67 -112 -154 -157 -160 0
-117 -67 -112 -154 -73 -118 0
-117 -67 -112 -154 -73 -160 0
-117 -67 -112 -154 -118 -160 0
-117 -67 -112 -70 -157 -73 0
-117 -67 -112 -70 -157 -118 0
-117 -67 -112 -70 -157 -160 0
-117 -67 -112 -70 -73 -118 0
-117 -67 -112 -70 -73 -160 0
-117 -67 -112 -70 -118 -160 0
-117 -67 -112 -157 -73 -118 0
-117 -67 -112 -157 -73 -160 0
-117 -67 -112 -157 -118 -160 0
-117 -67 -112 -73 -118 -160 0
-117 -67 -154 -70 -157 -73 0
-117 -67 -154 -70 -157 -118 0
-117 -67 -154 -70 -157 -160 0
-117 -67 -154 -70 -73 -118 0
-117 -67 -154 -70 -73 -160 0
-117 -67 -154 -70 -118 -160 0
-117 -67 -154 -157 -73 -118 0
-117 -67 -154 -157 -73 -160 0
-117 -67 -154 -157 -118 -160 0
-117 -67 -154 -73 -118 -160 0
-117 -67 -70 -157 -73 -118 0
-117 -67 -70 -157 -73 -160 0
-117 -67 -70 -157 -118 -160 0
-117 -67 -70 -73 -118 -160 0
-117 -67 -157 -73 -118 -160 0
-117 -112 -154 -70 -157 -73 0
-117 -112 -154 -70 -157 -118 0
-117 -112 -154 -70 -157 -160 0
-117 -112 -154 -70 -73 -118 0
-117 -112 -154 -70 -73 -160 0
-117 -112 -154 -70 -118 -160 0
-117 -112 -154 -157 -73 -118 0
-117 -112 -154 -157 -73 -160 0
-117 -112 -154 -157 -118 -160 0
-117 -112 -154 -73 -118 -160 0
-117 -112 -70 -157 -73 -118 0
-117 -112 -70 -157 -73 -160 0
-117 -112 -70 -157 -118 -160 0
-117 -112 -70 -73 -118 -160 0
-117 -112 -157 -73 -118 -160 0
-117 -154 -70 -157 -73 -118 0
-117 -154 -70 -157 -73 -160 0
-117 -154 -70 -157 -118 -160 0
-117 -154 -70 -73 -118 -160 0
-117 -154 -157 -73 -118 -160 0
-117 -70 -157 -73 -118 -160 0
-117 67 112 154 70 157 0
-117 67 112 154 70 73 0
-117 67 112 154 70 118 0
-117 67 112 154 70 160 0
-117 67 112 154 157 73 0
-117 67 112 154 157 118 0
-117 67 112 154 157 160 0
-117 67 112 154 73 118 0
-117 67 112 154 73 160 0
-117 67 112 154 118 160 0
-117 67 112 70 157 73 0
-117 67 112 70 157 118 0
-117 67 112 70 157 160 0
-117 67 112 70 73 118 0
-117 67 112 70 73 160 0
-117 67 112 70 118 160 0
-117 67 112 157 73 118 0
-117 67 112 157 73 160 0
-117 67 112 157 118 160 0
-117 67 112 73 118 160 0
-117 67 154 70 157 73 0
-117 67 154 70 157 118 0
-117 67 154 70 157 160 0
-117 67 154 70 73 118 0
-117 67 154 70 73 160 0
-117 67 154 70 118 160 0
-117 67 154 157 73 118 0
-117 67 154 157 73 160 0
-117 67 154 157 118 160 0
-117 67 154 73 118 160 0
-117 67 70 157 73 118 0
-117 67 70 157 73 160 0
-117 67 70 157 118 160 0
-117 67 70 73 118 160 0
-117 67 157 73 118 160 0
-117 112 154 70 157 73 0
-117 112 154 70 157 118 0
-117 112 154 70 157 160 0
-117 112 154 70 73 118 0
-117 112 154 70 73 160 0
-117 112 154 70 118 160 0
-117 112 154 157 73 118 0
-117 112 154 157 73 160 0
-117 112 154 157 118 160 0
-117 112 154 73 118 160 0
-117 112 70 157 73 118 0
-117 112 70 157 73 160 0
-117 112 70 157 118 160 0
-117 112 70 73 118 160 0
-117 112 157 73 118 160 0
-117 154 70 157 73 118 0
-117 154 70 157 73 160 0
-117 154 70 157 118 160 0
-117 154 70 73 118 160 0
-117 154 157 73 118 160 0
-117 70 157 73 118 160 0
-118 -119 0
-118 -120 0
-119 -120 0
-118 -71 -116 -158 0
-118 -71 -116 -74 0
-118 -71 -116 -161 0
-118 -71 -116 -77 0
-118 -71 -116 -122 0
-118 -71 -116 -164 0
-118 -71 -158 -74 0
-118 -71 -158 -161 0
-118 -71 -158 -77 0
-118 -71 -158 -122 0
-118 -71 -158 -164 0
-118 -71 -74 -161 0
-118 -71 -74 -77 0
-118 -71 -74 -122 0
-118 -71 -74 -164 0
-118 -71 -161 -77 0
-118 -71 -161 -122 0
-118 -71 -161 -164 0
-118 -71 -77 -122 0
-118 -71 -77 -164 0
-118 -71 -122 -164 0
-118 -116 -158 -74 0
-118 -116 -158 -161 0
-118 -116 -158 -77 0
-118 -116 -158 -122 0
-118 -116 -158 -164 0
-118 -116 -74 -161 0
-118 -116 -74 -77 0
-118 -116 -74 -122 0
-118 -116 -74 -164 0
-118 -116 -161 -77 0
-118 -116 -161 -122 0
-118 -116 -161 -164 0
-118 -116 -77 -122 0
-118 -116 -77 -164 0
-118 -116 -122 -164 0
-118 -158 -74 -161 0
-118 -158 -74 -77 0
-118 -158 -74 -122 0
-118 -158 -74 -164 0
-118 -158 -161 -77 0
-118 -158 -161 -122 0
-118 -158 -161 -164 0
-118 -158 -77 -122 0
-118 -158 -77 -164 0
-118 -158 -122 -164 0
-118 -74 -161 -77 0
-118 -74 -161 -122 0
-118 -74 -161 -164 0
-118 -74 -77 -122 0
-118 -74 -77 -164 0
-118 -74 -122 -164 0
-118 -161 -77 -122 0
-118 -161 -77 -164 0
-118 -161 -122 -164 0
-118 -77 -122 -164 0
-118 71 116 158 74 161 77 122 0
-118 71 116 158 74 161 77 164 0
-118 71 116 158 74 161 122 164 0
-118 71 116 158 74 77 122 164 0
-118 71 116 158 161 77 122 164 0
-118 71 116 74 161 77 122 164 0
-118 71 158 74 161 77 122 164 0
-118 116 158 74 161 77 122 164 0
-119 -72 -117 -159 -75 0
-119 -72 -117 -159 -162 0
-119 -72 -117 -159 -78 0
-119 -72 -117 -159 -123 0
-119 -72 -117 -159 -165 0
-119 -72 -117 -75 -162 0
-119 -72 -117 -75 -78 0
-119 -72 -117 -75 -123 0
-119 -72 -117 -75 -165 0
-119 -72 -117 -162 -78 0
-119 -72 -117 -162 -123 0
-119 -72 -117 -162 -165 0
-119 -72 -117 -78 -123 0
-119 -72 -117 -78 -165 0
-119 -72 -117 -123 -165 0
-119 -72 -159 -75 -162 0
-119 -72 -159 -75 -78 0
-119 -72 -159 -75 -123 0
-119 -72 -159 -75 -165 0
-119 -72 -159 -162 -78 0
-119 -72 -159 -162 -123 0
-119 -72 -159 -162 -165 0
-119 -72 -159 -78 -123 0
-119 -72 -159 -78 -165 0
-119 -72 -159 -123 -165 0
-119 -72 -75 -162 -78 0
-119 -72 -75 -162 -123 0
-119 -72 -75 -162 -165 0
-119 -72 -75 -78 -123 0
-119 -72 -75 -78 -165 0
-119 -72 -75 -123 -165 0
-119 -72 -162 -78 -123 0
-119 -72 -162 -78 -165 0
-119 -72 -162 -123 -165 0
-119 -72 -78 -123 -165 0
-119 -117 -159 -75 -162 0
-119 -117 -159 -75 -78 0
-119 -117 -159 -75 -123 0
-119 -117 -159 -75 -165 0
-119 -117 -159 -162 -78 0
-119 -117 -159 -162 -123 0
-119 -117 -159 -162 -165 0
-119 -117 -159 -78 -123 0
-119 -117 -159 -78 -165 0
-119 -117 -159 -123 -165 0
-119 -117 -75 -162 -78 0
-119 -117 -75 -162 -123 0
-119 -117 -75 -162 -165 0
-119 -117 -75 -78 -123 0
-119 -117 -75 -78 -165 0
-119 -117 -75 -123 -165 0
-119 -117 -162 -78 -123 0
-119 -117 -162 -78 -165 0
-119 -117 -162 -123 -165 0
-119 -117 -78 -123 -165 0
-119 -159 -75 -162 -78 0
-119 -159 -75 -162 -123 0
-119 -159 -75 -162 -165 0
-119 -159 -75 -78 -123 0
-119 -159 -75 -78 -165 0
-119 -159 -75 -123 -165 0
-119 -159 -162 -78 -123 0
-119 -159 -162 -78 -165 0
-119 -159 -162 -123 -165 0
-119 -159 -78 -123 -165 0
-119 -75 -162 -78 -123 0
-119 -75 -162 -78 -165 0
-119 -75 -162 -123 -165 0
-119 -75 -78 -123 -165 0
-119 -162 -78 -123 -165 0
-119 72 117 159 75 162 78 0
-119 72 117 159 75 162 123 0
-119 72 117 159 75 162 165 0
-119 72 117 159 75 78 123 0
-119 72 117 159 75 78 165 0
-119 72 117 159 75 123 165 0
-119 72 117 159 162 78 123 0
-119 72 117 159 162 78 165 0
-119 72 117 159 162 123 165 0
-119 72 117 159 78 123 165 0
-119 72 117 75 162 78 123 0
-119 72 117 75 162 78 165 0
-119 72 117 75 162 123 165 0
-119 72 117 75 78 123 165 0
-119 72 117 162 78 123 165 0
-119 72 159 75 162 78 123 0
-119 72 159 75 162 78 165 0
-119 72 159 75 162 123 165 0
-119 72 159 75 78 123 165 0
-119 72 159 162 78 123 165 0
-119 72 75 162 78 123 165 0
-119 117 159 75 162 78 123 0
-119 117 159 75 162 78 165 0
-119 117 159 75 162 123 165 0
-119 117 159 75 78 123 165 0
-119 117 159 162 78 123 165 0
-119 117 75 162 78 123 165 0
-119 159 75 162 78 123 165 0
-120 -70 -115 -157 -73 -160 0
-120 -70 -115 -157 -73 -76 0
-120 -70 -115 -157 -73 -121 0
-120 -70 -115 -157 -73 -163 0
-120 -70 -115 -157 -160 -76 0
-120 -70 -115 -157 -160 -121 0
-120 -70 -115 -157 -160 -163 0
-120 -70 -115 -157 -76 -121 0
-120 -70 -115 -157 -76 -163 0
-120 -70 -115 -157 -121 -163 0
-120 -70 -115 -73 -160 -76 0
-120 -70 -115 -73 -160 -121 0
-120 -70 -115 -73 -160 -163 0
-120 -70 -115 -73 -76 -121 0
-120 -70 -115 -73 -76 -163 0
-120 -70 -115 -73 -121 -163 0
-120 -70 -115 -160 -76 -121 0
-120 -70 -115 -160 -76 -163 0
-120 -70 -115 -160 -121 -163 0
-120 -70 -115 -76 -121 -163 0
-120 -70 -157 -73 -160 -76 0
-120 -70 -157 -73 -160 -121 0
-120 -70 -157 -73 -160 -163 0
-120 -70 -157 -73 -76 -121 0
-120 -70 -157 -73 -76 -163 0
-120 -70 -157 -73 -121 -163 0
-120 -70 -157 -160 -76 -121 0
-120 -70 -157 -160 -76 -163 0
-120 -70 -157 -160 -121 -163 0
-120 -70 -157 -76 -121 -163 0
-120 -70 -73 -160 -76 -121 0
-120 -70 -73 -160 -76 -163 0
-120 -70 -73 -160 -121 -163 0
-120 -70 -73 -76 -121 -163 0
-120 -70 -160 -76 -121 -163 0
-120 -115 -157 -73 -160 -76 0
-120 -115 -157 -73 -160 -121 0
-120 -115 -157 -73 -160 -163 0
-120 -115 -157 -73 -76 -121 0
-120 -115 -157 -73 -76 -163 0
-120 -115 -157 -73 -121 -163 0
-120 -115 -157 -160 -76 -121 0
-120 -115 -157 -160 -76 -163 0
-120 -115 -157 -160 -121 -163 0
-120 -115 -157 -76 -121 -163 0
-120 -115 -73 -160 -76 -121 0
-120 -115 -73 -160 -76 -163 0
-120 -115 -73 -160 -121 -163 0
-120 -115 -73 -76 -121 -163 0
-120 -115 -160 -76 -121 -163 0
-120 -157 -73 -160 -76 -121 0
-120 -157 -73 -160 -76 -163 0
-120 -157 -73 -160 -121 -163 0
-120 -157 -73 -76 -121 -163 0
-120 -157 -160 -76 -121 -163 0
-120 -73 -160 -76 -121 -163 0
-120 70 115 157 73 160 0
-120 70 115 157 73 76 0
-120 70 115 157 73 121 0
-120 70 115 157 73 163 0
-120 70 115 157 160 76 0
-120 70 115 157 160 121 0
-120 70 115 157 160 163 0
-120 70 115 157 76 121 0
-120 70 115 157 76 163 0
-120 70 115 157 121 163 0
-120 70 115 73 160 76 0
-120 70 115 73 160 121 0
-120 70 115 73 160 163 0
-120 70 115 73 76 121 0
-120 70 115 73 76 163 0
-120 70 115 73 121 163 0
-120 70 115 160 76 121 0
-120 70 115 160 76 163 0
-120 70 115 160 121 163 0
-120 70 115 76 121 163 0
-120 70 157 73 160 76 0
-120 70 157 73 160 121 0
-120 70 157 73 160 163 0
-120 70 157 73 76 121 0
-120 70 157 73 76 163 0
-120 70 157 73 121 163 0
-120 70 157 160 76 121 0
-120 70 157 160 76 163 0
-120 70 157 160 121 163 0
-120 70 157 76 121 163 0
-120 70 73 160 76 121 0
-120 70 73 160 76 163 0
-120 70 73 160 121 163 0
-120 70 73 76 121 163 0
-120 70 160 76 121 163 0
-120 115 157 73 160 76 0
-120 115 157 73 160 121 0
-120 115 157 73 160 163 0
-120 115 157 73 76 121 0
-120 115 157 73 76 163 0
-120 115 157 73 121 163 0
-120 115 157 160 76 121 0
-120 115 157 160 76 163 0
-120 115 157 160 121 163 0
-120 115 157 76 121 163 0
-120 115 73 160 76 121 0
-120 115 73 160 76 163 0
-120 115 73 160 121 163 0
-120 115 73 76 121 163 0
-120 115 160 76 121 163 0
-120 157 73 160 76 121 0
-120 157 73 160 76 163 0
-120 157 73 160 121 163 0
-120 157 73 76 121 163 0
-120 157 160 76 121 163 0
-120 73 160 76 121 163 0
-121 -122 0
-121 -123 0
-122 -123 0
-121 -74 -119 -161 0
-121 -74 -119 -77 0
-121 -74 -119 -164 0
-121 -74 -119 -80 0
-121 -74 -119 -125 0
-121 -74 -119 -167 0
-121 -74 -161 -77 0
-121 -74 -161 -164 0
-121 -74 -161 -80 0
-121 -74 -161 -125 0
-121 -74 -161 -167 0
-121 -74 -77 -164 0
-121 -74 -77 -80 0
-121 -74 -77 -125 0
-121 -74 -77 -167 0
-121 -74 -164 -80 0
-121 -74 -164 -125 0
-121 -74 -164 -167 0
-121 -74 -80 -125 0
-121 -74 -80 -167 0
-121 -74 -125 -167 0
-121 -119 -161 -77 0
-121 -119 -161 -164 0
-121 -119 -161 -80 0
-121 -119 -161 -125 0
-121 -119 -161 -167 0
-121 -119 -77 -164 0
-121 -119 -77 -80 0
-121 -119 -77 -125 0
-121 -119 -77 -167 0
-121 -119 -164 -80 0
-121 -119 -164 -125 0
-121 -119 -164 -167 0
-121 -119 -80 -125 0
-121 -119 -80 -167 0
-121 -119 -125 -167 0
-121 -161 -77 -164 0
-121 -161 -77 -80 0
-121 -161 -77 -125 0
-121 -161 -77 -167 0
-121 -161 -164 -80 0
-121 -161 -164 -125 0
-121 -161 -164 -167 0
-121 -161 -80 -125 0
-121 -161 -80 -167 0
-121 -161 -125 -167 0
-121 -77 -164 -80 0
-121 -77 -164 -125 0
-121 -77 -164 -167 0
-121 -77 -80 -125 0
-121 -77 -80 -167 0
-121 -77 -125 -167 0
-121 -164 -80 -125 0
-121 -164 -80 -167 0
-121 -164 -125 -167 0
-121 -80 -125 -167 0
-121 74 119 161 77 164 80 125 0
-121 74 119 161 77 164 80 167 0
-121 74 119 161 77 164 125 167 0
-121 74 119 161 77 80 125 167 0
-121 74 119 161 164 80 125 167 0
-121 74 119 77 164 80 125 167 0
-121 74 161 77 164 80 125 167 0
-121 119 161 77 164 80 125 167 0
-122 -75 -120 -162 -78 0
-122 -75 -120 -162 -165 0
-122 -75 -120 -162 -81 0
-122 -75 -120 -162 -126 0
-122 -75 -120 -162 -168 0
-122 -75 -120 -78 -165 0
-122 -75 -120 -78 -81 0
-122 -75 -120 -78 -126 0
-122 -75 -120 -78 -168 0
-122 -75 -120 -165 -81 0
-122 -75 -120 -165 -126 0
-122 -75 -120 -165 -168 0
-122 -75 -120 -81 -126 0
-122 -75 -120 -81 -168 0
-122 -75 -120 -126 -168 0
-122 -75 -162 -78 -165 0
-122 -75 -162 -78 -81 0
-122 -75 -162 -78 -126 0
-122 -75 -162 -78 -168 0
-122 -75 -162 -165 -81 0
-122 -75 -162 -165 -126 0
-122 -75 -162 -165 -168 0
-122 -75 -162 -81 -126 0
-122 -75 -162 -81 -168 0
-122 -75 -162 -126 -168 0
-122 -75 -78 -165 -81 0
-122 -75 -78 -165 -126 0
-122 -75 -78 -165 -168 0
-122 -75 -78 -81 -126 0
-122 -75 -78 -81 -168 0
-122 -75 -78 -126 -168 0
-122 -75 -165 -81 -126 0
-122 -75 -165 -81 -168 0
-122 -75 -165 -126 -168 0
-122 -75 -81 -126 -168 0
-122 -120 -162 -78 -165 0
-122 -120 -162 -78 -81 0
-122 -120 -162 -78 -126 0
-122 -120 -162 -78 -168 0
-122 -120 -162 -165 -81 0
-122 -120 -162 -165 -126 0
-122 -120 -162 -165 -168 0
-122 -120 -162 -81 -126 0
-122 -120 -162 -81 -168 0
-122 -120 -162 -126 -168 0
-122 -120 -78 -165 -81 0
-122 -120 -78 -165 -126 0
-122 -120 -78 -165 -168 0
-122 -120 -78 -81 -126 0
-122 -120 -78 -81 -168 0
-122 -120 -78 -126 -168 0
-122 -120 -165 -81 -126 0
-122 -120 -165 -81 -168 0
-122 -120 -165 -126 -168 0
-122 -120 -81 -126 -168 0
-122 -162 -78 -165 -81 0
-122 -162 -78 -165 -126 0
-122 -162 -78 -165 -168 0
-122 -162 -78 -81 -126 0
-122 -162 -78 -81 -168 0
-122 -162 -78 -126 -168 0
-122 -162 -165 -81 -126 0
-122 -162 -165 -81 -168 0
-122 -162 -165 -126 -168 0
-122 -162 -81 -126 -168 0
-122 -78 -165 -81 -126 0
-122 -78 -165 -81 -168 0
-122 -78 -165 -126 -168 0
-122 -78 -81 -126 -168 0
-122 -165 -81 -126 -168 0
-122 75 120 162 78 165 81 0
-122 75 120 162 78 165 126 0
-122 75 120 162 78 165 168 0
-122 75 120 162 78 81 126 0
-122 75 120 162 78 81 168 0
-122 75 120 162 78 126 168 0
-122 75 120 162 165 81 126 0
-122 75 120 162 165 81 168 0
-122 75 120 162 165 126 168 0
-122 75 120 162 81 126 168 0
-122 75 120 78 165 81 126 0
-122 75 120 78 165 81 168 0
-122 75 120 78 165 126 168 0
-122 75 120 78 81 126 168 0
-122 75 120 165 81 126 168 0
-122 75 162 78 165 81 126 0
-122 75 162 78 165 81 168 0
-122 75 162 78 165 126 168 0
-122 75 162 78 81 126 168 0
-122 75 162 165 81 126 168 0
-122 75 78 165 81 126 168 0
-122 120 162 78 165 81 126 0
-122 120 162 78 165 81 168 0
-122 120 162 78 165 126 168 0
-122 120 162 78 81 126 168 0
-122 120 162 165 81 126 168 0
-122 120 78 165 81 126 168 0
-122 162 78 165 81 126 168 0
-123 -73 -118 -160 -76 -163 0
-123 -73 -118 -160 -76 -79 0
-123 -73 -118 -160 -76 -124 0
-123 -73 -118 -160 -76 -166 0
-123 -73 -118 -160 -163 -79 0
-123 -73 -118 -160 -163 -124 0
-123 -73 -118 -160 -163 -166 0
-123 -73 -118 -160 -79 -124 0
-123 -73 -118 -160 -79 -166 0
-123 -73 -118 -160 -124 -166 0
-123 -73 -118 -76 -163 -79 0
-123 -73 -118 -76 -163 -124 0
-123 -73 -118 -76 -163 -166 0
-123 -73 -118 -76 -79 -124 0
-123 -73 -118 -76 -79 -166 0
-123 -73 -118 -76 -124 -166 0
-123 -73 -118 -163 -79 -124 0
-123 -73 -118 -163 -79 -166 0
-123 -73 -118 -163 -124 -166 0
-123 -73 -118 -79 -124 -166 0
-123 -73 -160 -76 -163 -79 0
-123 -73 -160 -76 -163 -124 0
-123 -73 -160 -76 -163 -166 0
-123 -73 -160 -76 -79 -124 0
-123 -73 -160 -76 -79 -166 0
-123 -73 -160 -76 -124 -166 0
-123 -73 -160 -163 -79 -124 0
-123 -73 -160 -163 -79 -166 0
-123 -73 -160 -163 -124 -166 0
-123 -73 -160 -79 -124 -166 0
-123 -73 -76 -163 -79 -124 0
-123 -73 -76 -163 -79 -166 0
-123 -73 -76 -163 -124 -166 0
-123 -73 -76 -79 -124 -166 0
-123 -73 -163 -79 -124 -166 0
-123 -118 -160 -76 -163 -79 0
-123 -118 -160 -76 -163 -124 0
-123 -118 -160 -76 -163 -166 0
-123 -118 -160 -76 -79 -124 0
-123 -118 -160 -76 -79 -166 0
-123 -118 -160 -76 -124 -166 0
-123 -118 -160 -163 -79 -124 0
-123 -118 -160 -163 -79 -166 0
-123 -118 -160 -163 -124 -166 0
-123 -118 -160 -79 -124 -166 0
-123 -118 -76 -163 -79 -124 0
-123 -118 -76 -163 -79 -166 0
-123 -118 -76 -163 -124 -166 0
-123 -118 -76 -79 -124 -166 0
-123 -118 -163 -79 -124 -166 0
-123 -160 -76 -163 -79 -124 0
-123 -160 -76 -163 -79 -166 0
-123 -160 -76 -163 -124 -166 0
-123 -160 -76 -79 -124 -166 0
-123 -160 -163 -79 -124 -166 0
-123 -76 -163 -79 -124 -166 0
-123 73 118 160 76 163 0
-123 73 118 160 76 79 0
-123 73 118 160 76 124 0
-123 73 118 160 76 166 0
-123 73 118 160 163 79 0
-123 73 118 160 163 124 0
-123 73 118 160 163 166 0
-123 73 118 160 79 124 0
-123 73 118 160 79 166 0
-123 73 118 160 124 166 0
-123 73 118 76 163 79 0
-123 73 118 76 163 124 0
-123 73 118 76 163 166 0
-123 73 118 76 79 124 0
-123 73 118 76 79 166 0
-123 73 118 76 124 166 0
-123 73 118 163 79 124 0
-123 73 118 163 79 166 0
-123 73 118 163 124 166 0
-123 73 118 79 124 166 0
-123 73 160 76 163 79 0
-123 73 160 76 163 124 0
-123 73 160 76 163 166 0
-123 73 160 76 79 124 0
-123 73 160 76 79 166 0
-123 73 160 76 124 166 0
-123 73 160 163 79 124 0
-123 73 160 163 79 166 0
-123 73 160 163 124 166 0
-123 73 160 79 124 166 0
-123 73 76 163 79 124 0
-123 73 76 163 79 166 0
-123 73 76 163 124 166 0
-123 73 76 79 124 166 0
-123 73 163 79 124 166 0
-123 118 160 76 163 79 0
-123 118 160 76 163 124 0
-123 118 160 76 163 166 0
-123 118 160 76 79 124 0
-123 118 160 76 79 166 0
-123 118 160 76 124 166 0
-123 118 160 163 79 124 0
-123 118 160 163 79 166 0
-123 118 160 163 124 166 0
-123 118 160 79 124 166 0
-123 118 76 163 79 124 0
-123 118 76 163 79 166 0
-123 118 76 163 124 166 0
-123 118 76 79 124 166 0
-123 118 163 79 124 166 0
-123 160 76 163 79 124 0
-123 160 76 163 79 166 0
-123 160 76 163 124 166 0
-123 160 76 79 124 166 0
-123 160 163 79 124 166 0
-123 76 163 79 124 166 0
-124 -125 0
-124 -126 0
-125 -126 0
-124 -77 -122 -164 0
-124 -77 -122 -80 0
-124 -77 -122 -167 0
-124 -77 -122 -83 0
-124 -77 -122 -128 0
-124 -77 -122 -170 0
-124 -77 -164 -80 0
-124 -77 -164 -167 0
-124 -77 -164 -83 0
-124 -77 -164 -128 0
-124 -77 -164 -170 0
-124 -77 -80 -167 0
-124 -77 -80 -83 0
-124 -77 -80 -128 0
-124 -77 -80 -170 0
-124 -77 -167 -83 0
-124 -77 -167 -128 0
-124 -77 -167 -170 0
-124 -77 -83 -128 0
-124 -77 -83 -170 0
-124 -77 -128 -170 0
-124 -122 -164 -80 0
-124 -122 -164 -167 0
-124 -122 -164 -83 0
-124 -122 -164 -128 0
-124 -122 -164 -170 0
-124 -122 -80 -167 0
-124 -122 -80 -83 0
-124 -122 -80 -128 0
-124 -122 -80 -170 0
-124 -122 -167 -83 0
-124 -122 -167 -128 0
-124 -122 -167 -170 0
-124 -122 -83 -128 0
-124 -122 -83 -170 0
-124 -122 -128 -170 0
-124 -164 -80 -167 0
-124 -164 -80 -83 0
-124 -164 -80 -128 0
-124 -164 -80 -170 0
-124 -164 -167 -83 0
-124 -164 -167 -128 0
-124 -164 -167 -170 0
-124 -164 -83 -128 0
-124 -164 -83 -170 0
-124 -164 -128 -170 0
-124 -80 -167 -83 0
-124 -80 -167 -128 0
-124 -80 -167 -170 0
-124 -80 -83 -128 0
-124 -80 -83 -170 0
-124 -80 -128 -170 0
-124 -167 -83 -128 0
-124 -167 -83 -170 0
-124 -167 -128 -170 0
-124 -83 -128 -170 0
-124 77 122 164 80 167 83 128 0
-124 77 122 164 80 167 83 170 0
-124 77 122 164 80 167 128 170 0
-124 77 122 164 80 83 128 170 0
-124 77 122 164 167 83 128 170 0
-124 77 122 80 167 83 128 170 0
-124 77 164 80 167 83 128 170 0
-124 122 164 80 167 83 128 170 0
-125 -78 -123 -165 -81 0
-125 -78 -123 -165 -168 0
-125 -78 -123 -165 -84 0
-125 -78 -123 -165 -129 0
-125 -78 -123 -165 -171 0
-125 -78 -123 -81 -168 0
-125 -78 -123 -81 -84 0
-125 -78 -123 -81 -129 0
-125 -78 -123 -81 -171 0
-125 -78 -123 -168 -84 0
-125 -78 -123 -168 -129 0
-125 -78 -123 -168 -171 0
-125 -78 -123 -84 -129 0
-125 -78 -123 -84 -171 0
-125 -78 -123 -129 -171 0
-125 -78 -165 -81 -168 0
-125 -78 -165 -81 -84 0
-125 -78 -165 -81 -129 0
-125 -78 -165 -81 -171 0
-125 -78 -165 -168 -84 0
-125 -78 -165 -168 -129 0
-125 -78 -165 -168 -171 0
-125 -78 -165 -84 -129 0
-125 -78 -165 -84 -171 0
-125 -78 -165 -129 -171 0
-125 -78 -81 -168 -84 0
-125 -78 -81 -168 -129 0
-125 -78 -81 -168 -171 0
-125 -78 -81 -84 -129 0
-125 -78 -81 -84 -171 0
-125 -78 -81 -129 -171 0
-125 -78 -168 -84 -129 0
-125 -78 -168 -84 -171 0
-125 -78 -168 -129 -171 0
-125 -78 -84 -129 -171 0
-125 -123 -165 -81 -168 0
-125 -123 -165 -81 -84 0
-125 -123 -165 -81 -129 0
-125 -123 -165 -81 -171 0
-125 -123 -165 -168 -84 0
-125 -123 -165 -168 -129 0
-125 -123 -165 -168 -171 0
-125 -123 -165 -84 -129 0
-125 -123 -165 -84 -171 0
-125 -123 -165 -129 -171 0
-125 -123 -81 -168 -84 0
-125 -123 -81 -168 -129 0
-125 -123 -81 -168 -171 0
-125 -123 -81 -84 -129 0
-125 -123 -81 -84 -171 0
-125 -123 -81 -129 -171 0
-125 -123 -168 -84 -129 0
-125 -123 -168 -84 -171 0
-125 -123 -168 -129 -171 0
-125 -123 -84 -129 -171 0
-125 -165 -81 -168 -84 0
-125 -165 -81 -168 -129 0
-125 -165 -81 -168 -171 0
-125 -165 -81 -84 -129 0
-125 -165 -81 -84 -171 0
-125 -165 -81 -129 -171 0
-125 -165 -168 -84 -129 0
-125 -165 -168 -84 -171 0
-125 -165 -168 -129 -171 0
-125 -165 -84 -129 -171 0
-125 -81 -168 -84 -129 0
-125 -81 -168 -84 -171 0
-125 -81 -168 -129 -171 0
-125 -81 -84 -129 -171 0
-125 -168 -84 -129 -171 0
-125 78 123 165 81 168 84 0
-125 78 123 165 81 168 129 0
-125 78 123 165 81 168 171 0
-125 78 123 165 81 84 129 0
-125 78 123 165 81 84 171 0
-125 78 123 165 81 129 171 0
-125 78 123 165 168 84 129 0
-125 78 123 165 168 84 171 0
-125 78 123 165 168 129 171 0
-125 78 123 165 84 129 171 0
-125 78 123 81 168 84 129 0
-125 78 123 81 168 84 171 0
-125 78 123 81 168 129 171 0
-125 78 123 81 84 129 171 0
-125 78 123 168 84 129 171 0
-125 78 165 81 168 84 129 0
-125 78 165 81 168 84 171 0
-125 78 165 81 168 129 171 0
-125 78 165 81 84 129 171 0
-125 78 165 168 84 129 171 0
-125 78 81 168 84 129 171 0
-125 123 165 81 168 84 129 0
-125 123 165 81 168 84 171 0
-125 123 165 81 168 129 171 0
-125 123 165 81 84 129 171 0
-125 123 165 168 84 129 171 0
-125 123 81 168 84 129 171 0
-125 165 81 168 84 129 171 0
-126 -76 -121 -163 -79 -166 0
-126 -76 -121 -163 -79 -82 0
-126 -76 -121 -163 -79 -127 0
-126 -76 -121 -163 -79 -169 0
-126 -76 -121 -163 -166 -82 0
-126 -76 -121 -163 -166 -127 0
-126 -76 -121 -163 -166 -169 0
-126 -76 -121 -163 -82 -127 0
-126 -76 -121 -163 -82 -169 0
-126 -76 -121 -163 -127 -169 0
-126 -76 -121 -79 -166 -82 0
-126 -76 -121 -79 -166 -127 0
-126 -76 -121 -79 -166 -169 0
-126 -76 -121 -79 -82 -127 0
-126 -76 -121 -79 -82 -169 0
-126 -76 -121 -79 -127 -169 0
-126 -76 -121 -166 -82 -127 0
-126 -76 -121 -166 -82 -169 0
-126 -76 -121 -166 -127 -169 0
-126 -76 -121 -82 -127 -169 0
-126 -76 -163 -79 -166 -82 0
-126 -76 -163 -79 -166 -127 0
-126 -76 -163 -79 -166 -169 0
-126 -76 -163 -79 -82 -127 0
-126 -76 -163 -79 -82 -169 0
-126 -76 -163 -79 -127 -169 0
-126 -76 -163 -166 -82 -127 0
-126 -76 -163 -166 -82 -169 0
-126 -76 -163 -166 -127 -169 0
-126 -76 -163 -82 -127 -169 0
-126 -76 -79 -166 -82 -127 0
-126 -76 -79 -166 -82 -169 0
-126 -76 -79 -166 -127 -169 0
-126 -76 -79 -82 -127 -169 0
-126 -76 -166 -82 -127 -169 0
-126 -121 -163 -79 -166 -82 0
-126 -121 -163 -79 -166 -127 0
-126 -121 -163 -79 -166 -169 0
-126 -121 -163 -79 -82 -127 0
-126 -121 -163 -79 -82 -169 0
-126 -121 -163 -79 -127 -169 0
-126 -121 -163 -166 -82 -127 0
-126 -121 -163 -166 -82 -169 0
-126 -121 -163 -166 -127 -169 0
-126 -121 -163 -82 -127 -169 0
-126 -121 -79 -166 -82 -127 0
-126 -121 -79 -166 -82 -169 0
-126 -121 -79 -166 -127 -169 0
-126 -121 -79 -82 -127 -169 0
-126 -121 -166 -82 -127 -169 0
-126 -163 -79 -166 -82 -127 0
-126 -163 -79 -166 -82 -169 0
-126 -163 -79 -166 -127 -169 0
-126 -163 -79 -82 -127 -169 0
-126 -163 -166 -82 -127 -169 0
-126 -79 -166 -82 -127 -169 0
-126 76 121 163 79 166 0
-126 76 121 163 79 82 0
-126 76 121 163 79 127 0
-126 76 121 163 79 169 0
-126 76 121 163 166 82 0
-126 76 121 163 166 127 0
-126 76 121 163 166 169 0
-126 76 121 163 82 127 0
-126 76 121 163 82 169 0
-126 76 121 163 127 169 0
-126 76 121 79 166 82 0
-126 76 121 79 166 127 0
-126 76 121 79 166 169 0
-126 76 121 79 82 127 0
-126 76 121 79 82 169 0
-126 76 121 79 127 169 0
-126 76 121 166 82 127 0
-126 76 121 166 82 169 0
-126 76 121 166 127 169 0
-126 76 121 82 127 169 0
-126 76 163 79 166 82 0
-126 76 163 79 166 127 0
-126 76 163 79 166 169 0
-126 76 163 79 82 127 0
-126 76 163 79 82 169 0
-126 76 163 79 127 169 0
-126 76 163 166 82 127 0
-126 76 163 166 82 169 0
-126 76 163 166 127 169 0
-126 76 163 82 127 169 0
-126 76 79 166 82 127 0
-126 76 79 166 82 169 0
-126 76 79 166 127 169 0
-126 76 79 82 127 169 0
-126 76 166 82 127 169 0
-126 121 163 79 166 82 0
-126 121 163 79 166 127 0
-126 121 163 79 166 169 0
-126 121 163 79 82 127 0
-126 121 163 79 82 169 0
-126 121 163 79 127 169 0
-126 121 163 166 82 127 0
-126 121 163 166 82 169 0
-126 121 163 166 127 169 0
-126 121 163 82 127 169 0
-126 121 79 166 82 127 0
-126 121 79 166 82 169 0
-126 121 79 166 127 169 0
-126 121 79 82 127 169 0
-126 121 166 82 127 169 0
-126 163 79 166 82 127 0
-126 163 79 166 82 169 0
-126 163 79 166 127 169 0
-126 163 79 82 127 169 0
-126 163 166 82 127 169 0
-126 79 166 82 127 169 0
-127 -128 0
-127 -129 0
-128 -129 0
-127 -80 -125 -167 0
-127 -80 -125 -83 0
-127 -80 -125 -170 0
-127 -80 -125 -86 0
-127 -80 -125 -131 0
-127 -80 -125 -173 0
-127 -80 -167 -83 0
-127 -80 -167 -170 0
-127 -80 -167 -86 0
-127 -80 -167 -131 0
-127 -80 -167 -173 0
-127 -80 -83 -170 0
-127 -80 -83 -86 0
-127 -80 -83 -131 0
-127 -80 -83 -173 0
-127 -80 -170 -86 0
-127 -80 -170 -131 0
-127 -80 -170 -173 0
-127 -80 -86 -131 0
-127 -80 -86 -173 0
-127 -80 -131 -173 0
-127 -125 -167 -83 0
-127 -125 -167 -170 0
-127 -125 -167 -86 0
-127 -125 -167 -131 0
-127 -125 -167 -173 0
-127 -125 -83 -170 0
-127 -125 -83 -86 0
-127 -125 -83 -131 0
-127 -125 -83 -173 0
-127 -125 -170 -86 0
-127 -125 -170 -131 0
-127 -125 -170 -173 0
-127 -125 -86 -131 0
-127 -125 -86 -173 0
-127 -125 -131 -173 0
-127 -167 -83 -170 0
-127 -167 -83 -86 0
-127 -167 -83 -131 0
-127 -167 -83 -173 0
-127 -167 -170 -86 0
-127 -167 -170 -131 0
-127 -167 -170 -173 0
-127 -167 -86 -131 0
-127 -167 -86 -173 0
-127 -167 -131 -173 0
-127 -83 -170 -86 0
-127 -83 -170 -131 0
-127 -83 -170 -173 0
-127 -83 -86 -131 0
-127 -83 -86 -173 0
-127 -83 -131 -173 0
-127 -170 -86 -131 0
-127 -170 -86 -173 0
-127 -170 -131 -173 0
-127 -86 -131 -173 0
-127 80 125 167 83 170 86 131 0
-127 80 125 167 83 170 86 173 0
-127 80 125 167 83 170 131 173 0
-127 80 125 167 83 86 131 173 0
-127 80 125 167 170 86 131 173 0
-127 80 125 83 170 86 131 173 0
-127 80 167 83 170 86 131 173 0
-127 125 167 83 170 86 131 173 0
-128 -81 -126 -168 -84 0
-128 -81 -126 -168 -171 0
-128 -81 -126 -168 -87 0
-128 -81 -126 -168 -132 0
-128 -81 -126 -168 -174 0
-128 -81 -126 -84 -171 0
-128 -81 -126 -84 -87 0
-128 -81 -126 -84 -132 0
-128 -81 -126 -84 -174 0
-128 -81 -126 -171 -87 0
-128 -81 -126 -171 -132 0
-128 -81 -126 -171 -174 0
-128 -81 -126 -87 -132 0
-128 -81 -126 -87 -174 0
-128 -81 -126 -132 -174 0
-128 -81 -168 -84 -171 0
-128 -81 -168 -84 -87 0
-128 -81 -168 -84 -132 0
-128 -81 -168 -84 -174 0
-128 -81 -168 -171 -87 0
-128 -81 -168 -171 -132 0
-128 -81 -168 -171 -174 0
-128 -81 -168 -87 -132 0
-128 -81 -168 -87 -174 0
-128 -81 -168 -132 -174 0
-128 -81 -84 -171 -87 0
-128 -81 -84 -171 -132 0
-128 -81 -84 -171 -174 0
-128 -81 -84 -87 -132 0
-128 -81 -84 -87 -174 0
-128 -81 -84 -132 -174 0
-128 -81 -171 -87 -132 0
-128 -81 -171 -87 -174 0
-128 -81 -171 -132 -174 0
-128 -81 -87 -132 -174 0
-128 -126 -168 -84 -171 0
-128 -126 -168 -84 -87 0
-128 -126 -168 -84 -132 0
-128 -126 -168 -84 -174 0
-128 -126 -168 -171 -87 0
-128 -126 -168 -171 -132 0
-128 -126 -168 -171 -174 0
-128 -126 -168 -87 -132 0
-128 -126 -168 -87 -174 0
-128 -126 -168 -132 -174 0
-128 -126 -84 -171 -87 0
-128 -126 -84 -171 -132 0
-128 -126 -84 -171 -174 0
-128 -126 -84 -87 -132 0
-128 -126 -84 -87 -174 0
-128 -126 -84 -132 -174 0
-128 -126 -171 -87 -132 0
-128 -126 -171 -87 -174 0
-128 -126 -171 -132 -174 0
-128 -126 -87 -132 -174 0
-128 -168 -84 -171 -87 0
-128 -168 -84 -171 -132 0
-128 -168 -84 -171 -174 0
-128 -168 -84 -87 -132 0
-128 -168 -84 -87 -174 0
-128 -168 -84 -132 -174 0
-128 -168 -171 -87 -132 0
-128 -168 -171 -87 -174 0
-128 -168 -171 -132 -174 0
-128 -168 -87 -132 -174 0
-128 -84 -171 -87 -132 0
-128 -84 -171 -87 -174 0
-128 -84 -171 -132 -174 0
-128 -84 -87 -132 -174 0
-128 -171 -87 -132 -174 0
-128 81 126 168 84 171 87 0
-128 81 126 168 84 171 132 0
-128 81 126 168 84 171 174 0
-128 81 126 168 84 87 132 0
-128 81 126 168 84 87 174 0
-128 81 126 168 84 132 174 0
-128 81 126 168 171 87 132 0
-128 81 126 168 171 87 174 0
-128 81 126 168 171 132 174 0
-128 81 126 168 87 132 174 0
-128 81 126 84 171 87 132 0
-128 81 126 84 171 87 174 0
-128 81 126 84 171 132 174 0
-128 81 126 84 87 132 174 0
-128 81 126 171 87 132 174 0
-128 81 168 84 171 87 132 0
-128 81 168 84 171 87 174 0
-128 81 168 84 171 132 174 0
-128 81 168 84 87 132 174 0
-128 81 168 171 87 132 174 0
-128 81 84 171 87 132 174 0
-128 126 168 84 171 87 132 0
-128 126 168 84 171 87 174 0
-128 126 168 84 171 132 174 0
-128 126 168 84 87 132 174 0
-128 126 168 171 87 132 174 0
-128 126 84 171 87 132 174 0
-128 168 84 171 87 132 174 0
-129 -79 -124 -166 -82 -169 0
-129 -79 -124 -166 -82 -85 0
-129 -79 -124 -166 -82 -130 0
-129 -79 -124 -166 -82 -172 0
-129 -79 -124 -166 -169 -85 0
-129 -79 -124 -166 -169 -130 0
-129 -79 -124 -166 -169 -172 0
-129 -79 -124 -166 -85 -130 0
-129 -79 -124 -166 -85 -172 0
-129 -79 -124 -166 -130 -172 0
-129 -79 -124 -82 -169 -85 0
-129 -79 -124 -82 -169 -130 0
-129 -79 -124 -82 -169 -172 0
-129 -79 -124 -82 -85 -130 0
-129 -79 -124 -82 -85 -172 0
-129 -79 -124 -82 -130 -172 0
-129 -79 -124 -169 -85 -130 0
-129 -79 -124 -169 -85 -172 0
-129 -79 -124 -169 -130 -172 0
-129 -79 -124 -85 -130 -172 0
-129 -79 -166 -82 -169 -85 0
-129 -79 -166 -82 -169 -130 0
-129 -79 -166 -82 -169 -172 0
-129 -79 -166 -82 -85 -130 0
-129 -79 -166 -82 -85 -172 0
-129 -79 -166 -82 -130 -172 0
-129 -79 -166 -169 -85 -130 0
-129 -79 -166 -169 -85 -172 0
-129 -79 -166 -169 -130 -172 0
-129 -79 -166 -85 -130 -172 0
-129 -79 -82 -169 -85 -130 0
-129 -79 -82 -169 -85 -172 0
-129 -79 -82 -169 -130 -172 0
-129 -79 -82 -85 -130 -172 0
-129 -79 -169 -85 -130 -172 0
-129 -124 -166 -82 -169 -85 0
-129 -124 -166 -82 -169 -130 0
-129 -124 -166 -82 -169 -172 0
-129 -124 -166 -82 -85 -130 0
-129 -124 -166 -82 -85 -172 0
-129 -124 -166 -82 -130 -172 0
-129 -124 -166 -169 -85 -130 0
-129 -124 -166 -169 -85 -172 0
-129 -124 -166 -169 -130 -172 0
-129 -124 -166 -85 -130 -172 0
-129 -124 -82 -169 -85 -130 0
-129 -124 -82 -169 -85 -172 0
-129 -124 -82 -169 -130 -172 0
-129 -124 -82 -85 -130 -172 0
-129 -124 -169 -85 -130 -172 0
-129 -166 -82 -169 -85 -130 0
-129 -166 -82 -169 -85 -172 0
-129 -166 -82 -169 -130 -172 0
-129 -166 -82 -85 -130 -172 0
-129 -166 -169 -85 -130 -172 0
-129 -82 -169 -85 -130 -172 0
-129 79 124 166 82 169 0
-129 79 124 166 82 85 0
-129 79 124 166 82 130 0
-129 79 124 166 82 172 0
-129 79 124 166 169 85 0
-129 79 124 166 169 130 0
-129 79 124 166 169 172 0
-129 79 124 166 85 130 0
-129 79 124 166 85 172 0
-129 79 124 166 130 172 0
-129 79 124 82 169 85 0
-129 79 124 82 169 130 0
-129 79 124 82 169 172 0
-129 79 124 82 85 130 0
-129 79 124 82 85 172 0
-129 79 124 82 130 172 0
-129 79 124 169 85 130 0
-129 79 124 169 85 172 0
-129 79 124 169 130 172 0
-129 79 124 85 130 172 0
-129 79 166 82 169 85 0
-129 79 166 82 169 130 0
-129 79 166 82 169 172 0
-129 79 166 82 85 130 0
-129 79 166 82 85 172 0
-129 79 166 82 130 172 0
-129 79 166 169 85 130 0
-129 79 166 169 85 172 0
-129 79 166 169 130 172 0
-129 79 166 85 130 172 0
-129 79 82 169 85 130 0
-129 79 82 169 85 172 0
-129 79 82 169 130 172 0
-129 79 82 85 130 172 0
-129 79 169 85 130 172 0
-129 124 166 82 169 85 0
-129 124 166 82 169 130 0
-129 124 166 82 169 172 0
-129 124 166 82 85 130 0
-129 124 166 82 85 172 0
-129 124 166 82 130 172 0
-129 124 166 169 85 130 0
-129 124 166 169 85 172 0
-129 124 166 169 130 172 0
-129 124 166 85 130 172 0
-129 124 82 169 85 130 0
-129 124 82 169 85 172 0
-129 124 82 169 130 172 0
-129 124 82 85 130 172 0
-129 124 169 85 130 172 0
-129 166 82 169 85 130 0
-129 166 82 169 85 172 0
-129 166 82 169 130 172 0
-129 166 82 85 130 172 0
-129 166 169 85 130 172 0
-129 82 169 85 130 172 0
-130 -131 0
-130 -132 0
-131 -132 0
-130 -83 -128 -170 0
-130 -83 -128 -86 0
-130 -83 -128 -173 0
-130 -83 -128 -89 0
-130 -83 -128 -134 0
-130 -83 -170 -86 0
-130 -83 -170 -173 0
-130 -83 -170 -89 0
-130 -83 -170 -134 0
-130 -83 -86 -173 0
-130 -83 -86 -89 0
-130 -83 -86 -134 0
-130 -83 -173 -89 0
-130 -83 -173 -134 0
-130 -83 -89 -134 0
-130 -128 -170 -86 0
-130 -128 -170 -173 0
-130 -128 -170 -89 0
-130 -128 -170 -134 0
-130 -128 -86 -173 0
-130 -128 -86 -89 0
-130 -128 -86 -134 0
-130 -128 -173 -89 0
-130 -128 -173 -134 0
-130 -128 -89 -134 0
-130 -170 -86 -173 0
-130 -170 -86 -89 0
-130 -170 -86 -134 0
-130 -170 -173 -89 0
-130 -170 -173 -134 0
-130 -170 -89 -134 0
-130 -86 -173 -89 0
-130 -86 -173 -134 0
-130 -86 -89 -134 0
-130 -173 -89 -134 0
-130 83 128 170 86 173 89 0
-130 83 128 170 86 173 134 0
-130 83 128 170 86 89 134 0
-130 83 128 170 173 89 134 0
-130 83 128 86 173 89 134 0
-130 83 170 86 173 89 134 0
-130 128 170 86 173 89 134 0
-131 -84 -129 -171 -87 0
-131 -84 -129 -171 -174 0
-131 -84 -129 -171 -90 0
-131 -84 -129 -171 -135 0
-131 -84 -129 -87 -174 0
-131 -84 -129 -87 -90 0
-131 -84 -129 -87 -135 0
-131 -84 -129 -174 -90 0
-131 -84 -129 -174 -135 0
-131 -84 -129 -90 -135 0
-131 -84 -171 -87 -174 0
-131 -84 -171 -87 -90 0
-131 -84 -171 -87 -135 0
-131 -84 -171 -174 -90 0
-131 -84 -171 -174 -135 0
-131 -84 -171 -90 -135 0
-131 -84 -87 -174 -90 0
-131 -84 -87 -174 -135 0
-131 -84 -87 -90 -135 0
-131 -84 -174 -90 -135 0
-131 -129 -171 -87 -174 0
-131 -129 -171 -87 -90 0
-131 -129 -171 -87 -135 0
-131 -129 -171 -174 -90 0
-131 -129 -171 -174 -135 0
-131 -129 -171 -90 -135 0
-131 -129 -87 -174 -90 0
-131 -129 -87 -174 -135 0
-131 -129 -87 -90 -135 0
-131 -129 -174 -90 -135 0
-131 -171 -87 -174 -90 0
-131 -171 -87 -174 -135 0
-131 -171 -87 -90 -135 0
-131 -171 -174 -90 -135 0
-131 -87 -174 -90 -135 0
-131 84 129 171 87 174 0
-131 84 129 171 87 90 0
-131 84 129 171 87 135 0
-131 84 129 171 174 90 0
-131 84 129 171 174 135 0
-131 84 129 171 90 135 0
-131 84 129 87 174 90 0
-131 84 129 87 174 135 0
-131 84 129 87 90 135 0
-131 84 129 174 90 135 0
-131 84 171 87 174 90 0
-131 84 171 87 174 135 0
-131 84 171 87 90 135 0
-131 84 171 174 90 135 0
-131 84 87 174 90 135 0
-131 129 171 87 174 90 0
-131 129 171 87 174 135 0
-131 129 171 87 90 135 0
-131 129 171 174 90 135 0
-131 129 87 174 90 135 0
-131 171 87 174 90 135 0
-132 -82 -127 -169 -85 -172 0
-132 -82 -127 -169 -85 -88 0
-132 -82 -127 -169 -85 -133 0
-132 -82 -127 -169 -172 -88 0
-132 -82 -127 -169 -172 -133 0
-132 -82 -127 -169 -88 -133 0
-132 -82 -127 -85 -172 -88 0
-132 -82 -127 -85 -172 -133 0
-132 -82 -127 -85 -88 -133 0
-132 -82 -127 -172 -88 -133 0
-132 -82 -169 -85 -172 -88 0
-132 -82 -169 -85 -172 -133 0
-132 -82 -169 -85 -88 -133 0
-132 -82 -169 -172 -88 -133 0
-132 -82 -85 -172 -88 -133 0
-132 -127 -169 -85 -172 -88 0
-132 -127 -169 -85 -172 -133 0
-132 -127 -169 -85 -88 -133 0
-132 -127 -169 -172 -88 -133 0
-132 -127 -85 -172 -88 -133 0
-132 -169 -85 -172 -88 -133 0
-132 82 127 169 85 0
-132 82 127 169 172 0
-132 82 127 169 88 0
-132 82 127 169 133 0
-132 82 127 85 172 0
-132 82 127 85 88 0
-132 82 127 85 133 0
-132 82 127 172 88 0
-132 82 127 172 133 0
-132 82 127 88 133 0
-132 82 169 85 172 0
-132 82 169 85 88 0
-132 82 169 85 133 0
-132 82 169 172 88 0
-132 82 169 172 133 0
-132 82 169 88 133 0
-132 82 85 172 88 0
-132 82 85 172 133 0
-132 82 85 88 133 0
-132 82 172 88 133 0
-132 127 169 85 172 0
-132 127 169 85 88 0
-132 127 169 85 133 0
-132 127 169 172 88 0
-132 127 169 172 133 0
-132 127 169 88 133 0
-132 127 85 172 88 0
-132 127 85 172 133 0
-132 127 85 88 133 0
-132 127 172 88 133 0
-132 169 85 172 88 0
-132 169 85 172 133 0
-132 169 85 88 133 0
-132 169 172 88 133 0
-132 85 172 88 133 0
-133 -134 0
-133 -135 0
-134 -135 0
-133 -86 -131 -173 0
-133 -86 -131 -89 0
-133 -86 -131 -92 0
-133 -86 -173 -89 0
-133 -86 -173 -92 0
-133 -86 -89 -92 0
-133 -131 -173 -89 0
-133 -131 -173 -92 0
-133 -131 -89 -92 0
-133 -173 -89 -92 0
-133 86 131 173 89 0
-133 86 131 173 92 0
-133 86 131 89 92 0
-133 86 173 89 92 0
-133 131 173 89 92 0
-134 -87 -132 -174 -90 0
-134 -87 -132 -174 -93 0
-134 -87 -132 -90 -93 0
-134 -87 -174 -90 -93 0
-134 -132 -174 -90 -93 0
-134 87 132 174 0
-134 87 132 90 0
-134 87 132 93 0
-134 87 174 90 0
-134 87 174 93 0
-134 87 90 93 0
-134 132 174 90 0
-134 132 174 93 0
-134 132 90 93 0
-134 174 90 93 0
-135 -85 -130 -172 -88 -91 0
-135 85 130 0
-135 85 172 0
-135 85 88 0
-135 85 91 0
-135 130 172 0
-135 130 88 0
-135 130 91 0
-135 172 88 0
-135 172 91 0
-135 88 91 0
-136 -137 0
-136 -138 0
-137 -138 0
-139 -140 0
-139 -141 0
-140 -141 0
-139 -95 -137 -176 0
-139 -95 -137 -98 0
-139 -95 -137 -179 0
-139 -95 -137 -101 0
-139 -95 -137 -143 0
-139 -95 -137 -182 0
-139 -95 -176 -98 0
-139 -95 -176 -179 0
-139 -95 -176 -101 0
-139 -95 -176 -143 0
-139 -95 -176 -182 0
-139 -95 -98 -179 0
-139 -95 -98 -101 0
-139 -95 -98 -143 0
-139 -95 -98 -182 0
-139 -95 -179 -101 0
-139 -95 -179 -143 0
-139 -95 -179 -182 0
-139 -95 -101 -143 0
-139 -95 -101 -182 0
-139 -95 -143 -182 0
-139 -137 -176 -98 0
-139 -137 -176 -179 0
-139 -137 -176 -101 0
-139 -137 -176 -143 0
-139 -137 -176 -182 0
-139 -137 -98 -179 0
-139 -137 -98 -101 0
-139 -137 -98 -143 0
-139 -137 -98 -182 0
-139 -137 -179 -101 0
-139 -137 -179 -143 0
-139 -137 -179 -182 0
-139 -137 -101 -143 0
-139 -137 -101 -182 0
-139 -137 -143 -182 0
-139 -176 -98 -179 0
-139 -176 -98 -101 0
-139 -176 -98 -143 0
-139 -176 -98 -182 0
-139 -176 -179 -101 0
-139 -176 -179 -143 0
-139 -176 -179 -182 0
-139 -176 -101 -143 0
-139 -176 -101 -182 0
-139 -176 -143 -182 0
-139 -98 -179 -101 0
-139 -98 -179 -143 0
-139 -98 -179 -182 0
-139 -98 -101 -143 0
-139 -98 -101 -182 0
-139 -98 -143 -182 0
-139 -179 -101 -143 0
-139 -179 -101 -182 0
-139 -179 -143 -182 0
-139 -101 -143 -182 0
-139 95 137 176 98 179 101 143 0
-139 95 137 176 98 179 101 182 0
-139 95 137 176 98 179 143 182 0
-139 95 137 176 98 101 143 182 0
-139 95 137 176 179 101 143 182 0
-139 95 137 98 179 101 143 182 0
-139 95 176 98 179 101 143 182 0
-139 137 176 98 179 101 143 182 0
-140 -96 -138 -177 -99 0
-140 -96 -138 -177 -180 0
-140 -96 -138 -177 -102 0
-140 -96 -138 -177 -144 0
-140 -96 -138 -177 -183 0
-140 -96 -138 -99 -180 0
-140 -96 -138 -99 -102 0
-140 -96 -138 -99 -144 0
-140 -96 -138 -99 -183 0
-140 -96 -138 -180 -102 0
-140 -96 -138 -180 -144 0
-140 -96 -138 -180 -183 0
-140 -96 -138 -102 -144 0
-140 -96 -138 -102 -183 0
-140 -96 -138 -144 -183 0
-140 -96 -177 -99 -180 0
-140 -96 -177 -99 -102 0
-140 -96 -177 -99 -144 0
-140 -96 -177 -99 -183 0
-140 -96 -177 -180 -102 0
-140 -96 -177 -180 -144 0
-140 -96 -177 -180 -183 0
-140 -96 -177 -102 -144 0
-140 -96 -177 -102 -183 0
-140 -96 -177 -144 -183 0
-140 -96 -99 -180 -102 0
-140 -96 -99 -180 -144 0
-140 -96 -99 -180 -183 0
-140 -96 -99 -102 -144 0
-140 -96 -99 -102 -183 0
-140 -96 -99 -144 -183 0
-140 -96 -180 -102 -144 0
-140 -96 -180 -102 -183 0
-140 -96 -180 -144 -183 0
-140 -96 -102 -144 -183 0
-140 -138 -177 -99 -180 0
-140 -138 -177 -99 -102 0
-140 -138 -177 -99 -144 0
-140 -138 -177 -99 -183 0
-140 -138 -177 -180 -102 0
-140 -138 -177 -180 -144 0
-140 -138 -177 -180 -183 0
-140 -138 -177 -102 -144 0
-140 -138 -177 -102 -183 0
-140 -138 -177 -144 -183 0
-140 -138 -99 -180 -102 0
-140 -138 -99 -180 -144 0
-140 -138 -99 -180 -183 0
-140 -138 -99 -102 -144 0
-140 -138 -99 -102 -183 0
-140 -138 -99 -144 -183 0
-140 -138 -180 -102 -144 0
-140 -138 -180 -102 -183 0
-140 -138 -180 -144 -183 0
-140 -138 -102 -144 -183 0
-140 -177 -99 -180 -102 0
-140 -177 -99 -180 -144 0
-140 -177 -99 -180 -183 0
-140 -177 -99 -102 -144 0
-140 -177 -99 -102 -183 0
-140 -177 -99 -144 -183 0
-140 -177 -180 -102 -144 0
-140 -177 -180 -102 -183 0
-140 -177 -180 -144 -183 0
-140 -177 -102 -144 -183 0
-140 -99 -180 -102 -144 0
-140 -99 -180 -102 -183 0
-140 -99 -180 -144 -183 0
-140 -99 -102 -144 -183 0
-140 -180 -102 -144 -183 0
-140 96 138 177 99 180 102 0
-140 96 138 177 99 180 144 0
-140 96 138 177 99 180 183 0
-140 96 138 177 99 102 144 0
-140 96 138 177 99 102 183 0
-140 96 138 177 99 144 183 0
-140 96 138 177 180 102 144 0
-140 96 138 177 180 102 183 0
-140 96 138 177 180 144 183 0
-140 96 138 177 102 144 183 0
-140 96 138 99 180 102 144 0
-140 96 138 99 180 102 183 0
-140 96 138 99 180 144 183 0
-140 96 138 99 102 144 183 0
-140 96 138 180 102 144 183 0
-140 96 177 99 180 102 144 0
-140 96 177 99 180 102 183 0
-140 96 177 99 180 144 183 0
-140 96 177 99 102 144 183 0
-140 96 177 180 102 144 183 0
-140 96 99 180 102 144 183 0
-140 138 177 99 180 102 144 0
-140 138 177 99 180 102 183 0
-140 138 177 99 180 144 183 0
-140 138 177 99 102 144 183 0
-140 138 177 180 102 144 183 0
-140 138 99 180 102 144 183 0
-140 177 99 180 102 144 183 0
-141 -94 -136 -175 -97 -178 0
-141 -94 -136 -175 -97 -100 0
-141 -94 -136 -175 -97 -142 0
-141 -94 -136 -175 -97 -181 0
-141 -94 -136 -175 -178 -100 0
-141 -94 -136 -175 -178 -142 0
-141 -94 -136 -175 -178 -181 0
-141 -94 -136 -175 -100 -142 0
-141 -94 -136 -175 -100 -181 0
-141 -94 -136 -175 -142 -181 0
-141 -94 -136 -97 -178 -100 0
-141 -94 -136 -97 -178 -142 0
-141 -94 -136 -97 -178 -181 0
-141 -94 -136 -97 -100 -142 0
-141 -94 -136 -97 -100 -181 0
-141 -94 -136 -97 -142 -181 0
-141 -94 -136 -178 -100 -142 0
-141 -94 -136 -178 -100 -181 0
-141 -94 -136 -178 -142 -181 0
-141 -94 -136 -100 -142 -181 0
-141 -94 -175 -97 -178 -100 0
-141 -94 -175 -97 -178 -142 0
-141 -94 -175 -97 -178 -181 0
-141 -94 -175 -97 -100 -142 0
-141 -94 -175 -97 -100 -181 0
-141 -94 -175 -97 -142 -181 0
-141 -94 -175 -178 -100 -142 0
-141 -94 -175 -178 -100 -181 0
-141 -94 -175 -178 -142 -181 0
-141 -94 -175 -100 -142 -181 0
-141 -94 -97 -178 -100 -142 0
-141 -94 -97 -178 -100 -181 0
-141 -94 -97 -178 -142 -181 0
-141 -94 -97 -100 -142 -181 0
-141 -94 -178 -100 -142 -181 0
-141 -136 -175 -97 -178 -100 0
-141 -136 -175 -97 -178 -142 0
-141 -136 -175 -97 -178 -181 0
-141 -136 -175 -97 -100 -142 0
-141 -136 -175 -97 -100 -181 0
-141 -136 -175 -97 -142 -181 0
-141 -136 -175 -178 -100 -142 0
-141 -136 -175 -178 -100 -181 0
-141 -136 -175 -178 -142 -181 0
-141 -136 -175 -100 -142 -181 0
-141 -136 -97 -178 -100 -142 0
-141 -136 -97 -178 -100 -181 0
-141 -136 -97 -178 -142 -181 0
-141 -136 -97 -100 -142 -181 0
-141 -136 -178 -100 -142 -181 0
-141 -175 -97 -178 -100 -142 0
-141 -175 -97 -178 -100 -181 0
-141 -175 -97 -178 -142 -181 0
-141 -175 -97 -100 -142 -181 0
-141 -175 -178 -100 -142 -181 0
-141 -97 -178 -100 -142 -181 0
-141 94 136 175 97 178 0
-141 94 136 175 97 100 0
-141 94 136 175 97 142 0
-141 94 136 175 97 181 0
-141 94 136 175 178 100 0
-141 94 136 175 178 142 0
-141 94 136 175 178 181 0
-141 94 136 175 100 142 0
-141 94 136 175 100 181 0
-141 94 136 175 142 181 0
-141 94 136 97 178 100 0
-141 94 136 97 178 142 0
-141 94 136 97 178 181 0
-141 94 136 97 100 142 0
-141 94 136 97 100 181 0
-141 94 136 97 142 181 0
-141 94 136 178 100 142 0
-141 94 136 178 100 181 0
-141 94 136 178 142 181 0
-141 94 136 100 142 181 0
-141 94 175 97 178 100 0
-141 94 175 97 178 142 0
-141 94 175 97 178 181 0
-141 94 175 97 100 142 0
-141 94 175 97 100 181 0
-141 94 175 97 142 181 0
-141 94 175 178 100 142 0
-141 94 175 178 100 181 0
-141 94 175 178 142 181 0
-141 94 175 100 142 181 0
-141 94 97 178 100 142 0
-141 94 97 178 100 181 0
-141 94 97 178 142 181 0
-141 94 97 100 142 181 0
-141 94 178 100 142 181 0
-141 136 175 97 178 100 0
-141 136 175 97 178 142 0
-141 136 175 97 178 181 0
-141 136 175 97 100 142 0
-141 136 175 97 100 181 0
-141 136 175 97 142 181 0
-141 136 175 178 100 142 0
-141 136 175 178 100 181 0
-141 136 175 178 142 181 0
-141 136 175 100 142 181 0
-141 136 97 178 100 142 0
-141 136 97 178 100 181 0
-141 136 97 178 142 181 0
-141 136 97 100 142 181 0
-141 136 178 100 142 181 0
-141 175 97 178 100 142 0
-141 175 97 178 100 181 0
-141 175 97 178 142 181 0
-141 175 97 100 142 181 0
-141 175 178 100 142 181 0
-141 97 178 100 142 181 0
-142 -143 0
-142 -144 0
-143 -144 0
-142 -98 -140 -179 0
-142 -98 -140 -101 0
-142 -98 -140 -182 0
-142 -98 -140 -104 0
-142 -98 -140 -146 0
-142 -98 -140 -185 0
-142 -98 -179 -101 0
-142 -98 -179 -182 0
-142 -98 -179 -104 0
-142 -98 -179 -146 0
-142 -98 -179 -185 0
-142 -98 -101 -182 0
-142 -98 -101 -104 0
-142 -98 -101 -146 0
-142 -98 -101 -185 0
-142 -98 -182 -104 0
-142 -98 -182 -146 0
-142 -98 -182 -185 0
-142 -98 -104 -146 0
-142 -98 -104 -185 0
-142 -98 -146 -185 0
-142 -140 -179 -101 0
-142 -140 -179 -182 0
-142 -140 -179 -104 0
-142 -140 -179 -146 0
-142 -140 -179 -185 0
-142 -140 -101 -182 0
-142 -140 -101 -104 0
-142 -140 -101 -146 0
-142 -140 -101 -185 0
-142 -140 -182 -104 0
-142 -140 -182 -146 0
-142 -140 -182 -185 0
-142 -140 -104 -146 0
-142 -140 -104 -185 0
-142 -140 -146 -185 0
-142 -179 -101 -182 0
-142 -179 -101 -104 0
-142 -179 -101 -146 0
-142 -179 -101 -185 0
-142 -179 -182 -104 0
-142 -179 -182 -146 0
-142 -179 -182 -185 0
-142 -179 -104 -146 0
-142 -179 -104 -185 0
-142 -179 -146 -185 0
-142 -101 -182 -104 0
-142 -101 -182 -146 0
-142 -101 -182 -185 0
-142 -101 -104 -146 0
-142 -101 -104 -185 0
-142 -101 -146 -185 0
-142 -182 -104 -146 0
-142 -182 -104 -185 0
-142 -182 -146 -185 0
-142 -104 -146 -185 0
-142 98 140 179 101 182 104 146 0
-142 98 140 179 101 182 104 185 0
-142 98 140 179 101 182 146 185 0
-142 98 140 179 101 104 146 185 0
-142 98 140 179 182 104 146 185 0
-142 98 140 101 182 104 146 185 0
-142 98 179 101 182 104 146 185 0
-142 140 179 101 182 104 146 185 0
-143 -99 -141 -180 -102 0
-143 -99 -141 -180 -183 0
-143 -99 -141 -180 -105 0
-143 -99 -141 -180 -147 0
-143 -99 -141 -180 -186 0
-143 -99 -141 -102 -183 0
-143 -99 -141 -102 -105 0
-143 -99 -141 -102 -147 0
-143 -99 -141 -102 -186 0
-143 -99 -141 -183 -105 0
-143 -99 -141 -183 -147 0
-143 -99 -141 -183 -186 0
-143 -99 -141 -105 -147 0
-143 -99 -141 -105 -186 0
-143 -99 -141 -147 -186 0
-143 -99 -180 -102 -183 0
-143 -99 -180 -102 -105 0
-143 -99 -180 -102 -147 0
-143 -99 -180 -102 -186 0
-143 -99 -180 -183 -105 0
-143 -99 -180 -183 -147 0
-143 -99 -180 -183 -186 0
-143 -99 -180 -105 -147 0
-143 -99 -180 -105 -186 0
-143 -99 -180 -147 -186 0
-143 -99 -102 -183 -105 0
-143 -99 -102 -183 -147 0
-143 -99 -102 -183 -186 0
-143 -99 -102 -105 -147 0
-143 -99 -102 -105 -186 0
-143 -99 -102 -147 -186 0
-143 -99 -183 -105 -147 0
-143 -99 -183 -105 -186 0
-143 -99 -183 -147 -186 0
-143 -99 -105 -147 -186 0
-143 -141 -180 -102 -183 0
-143 -141 -180 -102 -105 0
-143 -141 -180 -102 -147 0
-143 -141 -180 -102 -186 0
-143 -141 -180 -183 -105 0
-143 -141 -180 -183 -147 0
-143 -141 -180 -183 -186 0
-143 -141 -180 -105 -147 0
-143 -141 -180 -105 -186 0
-143 -141 -180 -147 -186 0
-143 -141 -102 -183 -105 0
-143 -141 -102 -183 -147 0
-143 -141 -102 -183 -186 0
-143 -141 -102 -105 -147 0
-143 -141 -102 -105 -186 0
-143 -141 -102 -147 -186 0
-143 -141 -183 -105 -147 0
-143 -141 -183 -105 -186 0
-143 -141 -183 -147 -186 0
-143 -141 -105 -147 -186 0
-143 -180 -102 -183 -105 0
-143 -180 -102 -183 -147 0
-143 -180 -102 -183 -186 0
-143 -180 -102 -105 -147 0
-143 -180 -102 -105 -186 0
-143 -180 -102 -147 -186 0
-143 -180 -183 -105 -147 0
-143 -180 -183 -105 -186 0
-143 -180 -183 -147 -186 0
-143 -180 -105 -147 -186 0
-143 -102 -183 -105 -147 0
-143 -102 -183 -105 -186 0
-143 -102 -183 -147 -186 0
-143 -102 -105 -147 -186 0
-143 -183 -105 -147 -186 0
-143 99 141 180 102 183 105 0
-143 99 141 180 102 183 147 0
-143 99 141 180 102 183 186 0
-143 99 141 180 102 105 147 0
-143 99 141 180 102 105 186 0
-143 99 141 180 102 147 186 0
-143 99 141 180 183 105 147 0
-143 99 141 180 183 105 186 0
-143 99 141 180 183 147 186 0
-143 99 141 180 105 147 186 0
-143 99 141 102 183 105 147 0
-143 99 141 102 183 105 186 0
-143 99 141 102 183 147 186 0
-143 99 141 102 105 147 186 0
-143 99 141 183 105 147 186 0
-143 99 180 102 183 105 147 0
-143 99 180 102 183 105 186 0
-143 99 180 102 183 147 186 0
-143 99 180 102 105 147 186 0
-143 99 180 183 105 147 186 0
-143 99 102 183 105 147 186 0
-143 141 180 102 183 105 147 0
-143 141 180 102 183 105 186 0
-143 141 180 102 183 147 186 0
-143 141 180 102 105 147 186 0
-143 141 180 183 105 147 186 0
-143 141 102 183 105 147 186 0
-143 180 102 183 105 147 186 0
-144 -97 -139 -178 -100 -181 0
-144 -97 -139 -178 -100 -103 0
-144 -97 -139 -178 -100 -145 0
-144 -97 -139 -178 -100 -184 0
-144 -97 -139 -178 -181 -103 0
-144 -97 -139 -178 -181 -145 0
-144 -97 -139 -178 -181 -184 0
-144 -97 -139 -178 -103 -145 0
-144 -97 -139 -178 -103 -184 0
-144 -97 -139 -178 -145 -184 0
-144 -97 -139 -100 -181 -103 0
-144 -97 -139 -100 -181 -145 0
-144 -97 -139 -100 -181 -184 0
-144 -97 -139 -100 -103 -145 0
-144 -97 -139 -100 -103 -184 0
-144 -97 -139 -100 -145 -184 0
-144 -97 -139 -181 -103 -145 0
-144 -97 -139 -181 -103 -184 0
-144 -97 -139 -181 -145 -184 0
-144 -97 -139 -103 -145 -184 0
-144 -97 -178 -100 -181 -103 0
-144 -97 -178 -100 -181 -145 0
-144 -97 -178 -100 -181 -184 0
-144 -97 -178 -100 -103 -145 0
-144 -97 -178 -100 -103 -184 0
-144 -97 -178 -100 -145 -184 0
-144 -97 -178 -181 -103 -145 0
-144 -97 -178 -181 -103 -184 0
-144 -97 -178 -181 -145 -184 0
-144 -97 -178 -103 -145 -184 0
-144 -97 -100 -181 -103 -145 0
-144 -97 -100 -181 -103 -184 0
-144 -97 -100 -181 -145 -184 0
-144 -97 -100 -103 -145 -184 0
-144 -97 -181 -103 -145 -184 0
-144 -139 -178 -100 -181 -103 0
-144 -139 -178 -100 -181 -145 0
-144 -139 -178 -100 -181 -184 0
-144 -139 -178 -100 -103 -145 0
-144 -139 -178 -100 -103 -184 0
-144 -139 -178 -100 -145 -184 0
-144 -139 -178 -181 -103 -145 0
-144 -139 -178 -181 -103 -184 0
-144 -139 -178 -181 -145 -184 0
-144 -139 -178 -103 -145 -184 0
-144 -139 -100 -181 -103 -145 0
-144 -139 -100 -181 -103 -184 0
-144 -139 -100 -181 -145 -184 0
-144 -139 -100 -103 -145 -184 0
-144 -139 -181 -103 -145 -184 0
-144 -178 -100 -181 -103 -145 0
-144 -178 -100 -181 -103 -184 0
-144 -178 -100 -181 -145 -184 0
-144 -178 -100 -103 -145 -184 0
-144 -178 -181 -103 -145 -184 0
-144 -100 -181 -103 -145 -184 0
-144 97 139 178 100 181 0
-144 97 139 178 100 103 0
-144 97 139 178 100 145 0
-144 97 139 178 100 184 0
-144 97 139 178 181 103 0
-144 97 139 178 181 145 0
-144 97 139 178 181 184 0
-144 97 139 178 103 145 0
-144 97 139 178 103 184 0
-144 97 139 178 145 184 0
-144 97 139 100 181 103 0
-144 97 139 100 181 145 0
-144 97 139 100 181 184 0
-144 97 139 100 103 145 0
-144 97 139 100 103 184 0
-144 97 139 100 145 184 0
-144 97 139 181 103 145 0
-144 97 139 181 103 184 0
-144 97 139 181 145 184 0
-144 97 139 103 145 184 0
-144 97 178 100 181 103 0
-144 97 178 100 181 145 0
-144 97 178 100 181 184 0
-144 97 178 100 103 145 0
-144 97 178 100 103 184 0
-144 97 178 100 145 184 0
-144 97 178 181 103 145 0
-144 97 178 181 103 184 0
-144 97 178 181 145 184 0
-144 97 178 103 145 184 0
-144 97 100 181 103 145 0
-144 97 100 181 103 184 0
-144 97 100 181 145 184 0
-144 97 100 103 145 184 0
-144 97 181 103 145 184 0
-144 139 178 100 181 103 0
-144 139 178 100 181 145 0
-144 139 178 100 181 184 0
-144 139 178 100 103 145 0
-144 139 178 100 103 184 0
-144 139 178 100 145 184 0
-144 139 178 181 103 145 0
-144 139 178 181 103 184 0
-144 139 178 181 145 184 0
-144 139 178 103 145 184 0
-144 139 100 181 103 145 0
-144 139 100 181 103 184 0
-144 139 100 181 145 184 0
-144 139 100 103 145 184 0
-144 139 181 103 145 184 0
-144 178 100 181 103 145 0
-144 178 100 181 103 184 0
-144 178 100 181 145 184 0
-144 178 100 103 145 184 0
-144 178 181 103 145 184 0
-144 100 181 103 145 184 0
-145 -146 0
-145 -147 0
-146 -147 0
-145 -101 -143 -182 0
-145 -101 -143 -104 0
-145 -101 -143 -185 0
-145 -101 -143 -107 0
-145 -101 -143 -149 0
-145 -101 -143 -188 0
-145 -101 -182 -104 0
-145 -101 -182 -185 0
-145 -101 -182 -107 0
-145 -101 -182 -149 0
-145 -101 -182 -188 0
-145 -101 -104 -185 0
-145 -101 -104 -107 0
-145 -101 -104 -149 0
-145 -101 -104 -188 0
-145 -101 -185 -107 0
-145 -101 -185 -149 0
-145 -101 -185 -188 0
-145 -101 -107 -149 0
-145 -101 -107 -188 0
-145 -101 -149 -188 0
-145 -143 -182 -104 0
-145 -143 -182 -185 0
-145 -143 -182 -107 0
-145 -143 -182 -149 0
-145 -143 -182 -188 0
-145 -143 -104 -185 0
-145 -143 -104 -107 0
-145 -143 -104 -149 0
-145 -143 -104 -188 0
-145 -143 -185 -107 0
-145 -143 -185 -149 0
-145 -143 -185 -188 0
-145 -143 -107 -149 0
-145 -143 -107 -188 0
-145 -143 -149 -188 0
-145 -182 -104 -185 0
-145 -182 -104 -107 0
-145 -182 -104 -149 0
-145 -182 -104 -188 0
-145 -182 -185 -107 0
-145 -182 -185 -149 0
-145 -182 -185 -188 0
-145 -182 -107 -149 0
-145 -182 -107 -188 0
-145 -182 -149 -188 0
-145 -104 -185 -107 0
-145 -104 -185 -149 0
-145 -104 -185 -188 0
-145 -104 -107 -149 0
-145 -104 -107 -188 0
-145 -104 -149 -188 0
-145 -185 -107 -149 0
-145 -185 -107 -188 0
-145 -185 -149 -188 0
-145 -107 -149 -188 0
-145 101 143 182 104 185 107 149 0
-145 101 143 182 104 185 107 188 0
-145 101 143 182 104 185 149 188 0
-145 101 143 182 104 107 149 188 0
-145 101 143 182 185 107 149 188 0
-145 101 143 104 185 107 149 188 0
-145 101 182 104 185 107 149 188 0
-145 143 182 104 185 107 149 188 0
-146 -102 -144 -183 -105 0
-146 -102 -144 -183 -186 0
-146 -102 -144 -183 -108 0
-146 -102 -144 -183 -150 0
-146 -102 -144 -183 -189 0
-146 -102 -144 -105 -186 0
-146 -102 -144 -105 -108 0
-146 -102 -144 -105 -150 0
-146 -102 -144 -105 -189 0
-146 -102 -144 -186 -108 0
-146 -102 -144 -186 -150 0
-146 -102 -144 -186 -189 0
-146 -102 -144 -108 -150 0
-146 -102 -144 -108 -189 0
-146 -102 -144 -150 -189 0
-146 -102 -183 -105 -186 0
-146 -102 -183 -105 -108 0
-146 -102 -183 -105 -150 0
-146 -102 -183 -105 -189 0
-146 -102 -183 -186 -108 0
-146 -102 -183 -186 -150 0
-146 -102 -183 -186 -189 0
-146 -102 -183 -108 -150 0
-146 -102 -183 -108 -189 0
-146 -102 -183 -150 -189 0
-146 -102 -105 -186 -108 0
-146 -102 -105 -186 -150 0
-146 -102 -105 -186 -189 0
-146 -102 -105 -108 -150 0
-146 -102 -105 -108 -189 0
-146 -102 -105 -150 -189 0
-146 -102 -186 -108 -150 0
-146 -102 -186 -108 -189 0
-146 -102 -186 -150 -189 0
-146 -102 -108 -150 -189 0
-146 -144 -183 -105 -186 0
-146 -144 -183 -105 -108 0
-146 -144 -183 -105 -150 0
-146 -144 -183 -105 -189 0
-146 -144 -183 -186 -108 0
-146 -144 -183 -186 -150 0
-146 -144 -183 -186 -189 0
-146 -144 -183 -108 -150 0
-146 -144 -183 -108 -189 0
-146 -144 -183 -150 -189 0
-146 -144 -105 -186 -108 0
-146 -144 -105 -186 -150 0
-146 -144 -105 -186 -189 0
-146 -144 -105 -108 -150 0
-146 -144 -105 -108 -189 0
-146 -144 -105 -150 -189 0
-146 -144 -186 -108 -150 0
-146 -144 -186 -108 -189 0
-146 -144 -186 -150 -189 0
-146 -144 -108 -150 -189 0
-146 -183 -105 -186 -108 0
-146 -183 -105 -186 -150 0
-146 -183 -105 -186 -189 0
-146 -183 -105 -108 -150 0
-146 -183 -105 -108 -189 0
-146 -183 -105 -150 -189 0
-146 -183 -186 -108 -150 0
-146 -183 -186 -108 -189 0
-146 -183 -186 -150 -189 0
-146 -183 -108 -150 -189 0
-146 -105 -186 -108 -150 0
-146 -105 -186 -108 -189 0
-146 -105 -186 -150 -189 0
-146 -105 -108 -150 -189 0
-146 -186 -108 -150 -189 0
-146 102 144 183 105 186 108 0
-146 102 144 183 105 186 150 0
-146 102 144 183 105 186 189 0
-146 102 144 183 105 108 150 0
-146 102 144 183 105 108 189 0
-146 102 144 183 105 150 189 0
-146 102 144 183 186 108 150 0
-146 102 144 183 186 108 189 0
-146 102 144 183 186 150 189 0
-146 102 144 183 108 150 189 0
-146 102 144 105 186 108 150 0
-146 102 144 105 186 108 189 0
-146 102 144 105 186 150 189 0
-146 102 144 105 108 150 189 0
-146 102 144 186 108 150 189 0
-146 102 183 105 186 108 150 0
-146 102 183 105 186 108 189 0
-146 102 183 105 186 150 189 0
-146 102 183 105 108 150 189 0
-146 102 183 186 108 150 189 0
-146 102 105 186 108 150 189 0
-146 144 183 105 186 108 150 0
-146 144 183 105 186 108 189 0
-146 144 183 105 186 150 189 0
-146 144 183 105 108 150 189 0
-146 144 183 186 108 150 189 0
-146 144 105 186 108 150 189 0
-146 183 105 186 108 150 189 0
-147 -100 -142 -181 -103 -184 0
-147 -100 -142 -181 -103 -106 0
-147 -100 -142 -181 -103 -148 0
-147 -100 -142 -181 -103 -187 0
-147 -100 -142 -181 -184 -106 0
-147 -100 -142 -181 -184 -148 0
-147 -100 -142 -181 -184 -187 0
-147 -100 -142 -181 -106 -148 0
-147 -100 -142 -181 -106 -187 0
-147 -100 -142 -181 -148 -187 0
-147 -100 -142 -103 -184 -106 0
-147 -100 -142 -103 -184 -148 0
-147 -100 -142 -103 -184 -187 0
-147 -100 -142 -103 -106 -148 0
-147 -100 -142 -103 -106 -187 0
-147 -100 -142 -103 -148 -187 0
-147 -100 -142 -184 -106 -148 0
-147 -100 -142 -184 -106 -187 0
-147 -100 -142 -184 -148 -187 0
-147 -100 -142 -106 -148 -187 0
-147 -100 -181 -103 -184 -106 0
-147 -100 -181 -103 -184 -148 0
-147 -100 -181 -103 -184 -187 0
-147 -100 -181 -103 -106 -148 0
-147 -100 -181 -103 -106 -187 0
-147 -100 -181 -103 -148 -187 0
-147 -100 -181 -184 -106 -148 0
-147 -100 -181 -184 -106 -187 0
-147 -100 -181 -184 -148 -187 0
-147 -100 -181 -106 -148 -187 0
-147 -100 -103 -184 -106 -148 0
-147 -100 -103 -184 -106 -187 0
-147 -100 -103 -184 -148 -187 0
-147 -100 -103 -106 -148 -187 0
-147 -100 -184 -106 -148 -187 0
-147 -142 -181 -103 -184 -106 0
-147 -142 -181 -103 -184 -148 0
-147 -142 -181 -103 -184 -187 0
-147 -142 -181 -103 -106 -148 0
-147 -142 -181 -103 -106 -187 0
-147 -142 -181 -103 -148 -187 0
-147 -142 -181 -184 -106 -148 0
-147 -142 -181 -184 -106 -187 0
-147 -142 -181 -184 -148 -187 0
-147 -142 -181 -106 -148 -187 0
-147 -142 -103 -184 -106 -148 0
-147 -142 -103 -184 -106 -187 0
-147 -142 -103 -184 -148 -187 0
-147 -142 -103 -106 -148 -187 0
-147 -142 -184 -106 -148 -187 0
-147 -181 -103 -184 -106 -148 0
-147 -181 -103 -184 -106 -187 0
-147 -181 -103 -184 -148 -187 0
-147 -181 -103 -106 -148 -187 0
-147 -181 -184 -106 -148 -187 0
-147 -103 -184 -106 -148 -187 0
-147 100 142 181 103 184 0
-147 100 142 181 103 106 0
-147 100 142 181 103 148 0
-147 100 142 181 103 187 0
-147 100 142 181 184 106 0
-147 100 142 181 184 148 0
-147 100 142 181 184 187 0
-147 100 142 181 106 148 0
-147 100 142 181 106 187 0
-147 100 142 181 148 187 0
-147 100 142 103 184 106 0
-147 100 142 103 184 148 0
-147 100 142 103 184 187 0
-147 100 142 103 106 148 0
-147 100 142 103 106 187 0
-147 100 142 103 148 187 0
-147 100 142 184 106 148 0
-147 100 142 184 106 187 0
-147 100 142 184 148 187 0
-147 100 142 106 148 187 0
-147 100 181 103 184 106 0
-147 100 181 103 184 148 0
-147 100 181 103 184 187 0
-147 100 181 103 106 148 0
-147 100 181 103 106 187 0
-147 100 181 103 148 187 0
-147 100 181 184 106 148 0
-147 100 181 184 106 187 0
-147 100 181 184 148 187 0
-147 100 181 106 148 187 0
-147 100 103 184 106 148 0
-147 100 103 184 106 187 0
-147 100 103 184 148 187 0
-147 100 103 106 148 187 0
-147 100 184 106 148 187 0
-147 142 181 103 184 106 0
-147 142 181 103 184 148 0
-147 142 181 103 184 187 0
-147 142 181 103 106 148 0
-147 142 181 103 106 187 0
-147 142 181 103 148 187 0
-147 142 181 184 106 148 0
-147 142 181 184 106 187 0
-147 142 181 184 148 187 0
-147 142 181 106 148 187 0
-147 142 103 184 106 148 0
-147 142 103 184 106 187 0
-147 142 103 184 148 187 0
-147 142 103 106 148 187 0
-147 142 184 106 148 187 0
-147 181 103 184 106 148 0
-147 181 103 184 106 187 0
-147 181 103 184 148 187 0
-147 181 103 106 148 187 0
-147 181 184 106 148 187 0
-147 103 184 106 148 187 0
-148 -149 0
-148 -150 0
-149 -150 0
-148 -104 -146 -185 0
-148 -104 -146 -107 0
-148 -104 -146 -188 0
-148 -104 -146 -110 0
-148 -104 -146 -152 0
-148 -104 -146 -191 0
-148 -104 -185 -107 0
-148 -104 -185 -188 0
-148 -104 -185 -110 0
-148 -104 -185 -152 0
-148 -104 -185 -191 0
-148 -104 -107 -188 0
-148 -104 -107 -110 0
-148 -104 -107 -152 0
-148 -104 -107 -191 0
-148 -104 -188 -110 0
-148 -104 -188 -152 0
-148 -104 -188 -191 0
-148 -104 -110 -152 0
-148 -104 -110 -191 0
-148 -104 -152 -191 0
-148 -146 -185 -107 0
-148 -146 -185 -188 0
-148 -146 -185 -110 0
-148 -146 -185 -152 0
-148 -146 -185 -191 0
-148 -146 -107 -188 0
-148 -146 -107 -110 0
-148 -146 -107 -152 0
-148 -146 -107 -191 0
-148 -146 -188 -110 0
-148 -146 -188 -152 0
-148 -146 -188 -191 0
-148 -146 -110 -152 0
-148 -146 -110 -191 0
-148 -146 -152 -191 0
-148 -185 -107 -188 0
-148 -185 -107 -110 0
-148 -185 -107 -152 0
-148 -185 -107 -191 0
-148 -185 -188 -110 0
-148 -185 -188 -152 0
-148 -185 -188 -191 0
-148 -185 -110 -152 0
-148 -185 -110 -191 0
-148 -185 -152 -191 0
-148 -107 -188 -110 0
-148 -107 -188 -152 0
-148 -107 -188 -191 0
-148 -107 -110 -152 0
-148 -107 -110 -191 0
-148 -107 -152 -191 0
-148 -188 -110 -152 0
-148 -188 -110 -191 0
-148 -188 -152 -191 0
-148 -110 -152 -191 0
-148 104 146 185 107 188 110 152 0
-148 104 146 185 107 188 110 191 0
-148 104 146 185 107 188 152 191 0
-148 104 146 185 107 110 152 191 0
-148 104 146 185 188 110 152 191 0
-148 104 146 107 188 110 152 191 0
-148 104 185 107 188 110 152 191 0
-148 146 185 107 188 110 152 191 0
-149 -105 -147 -186 -108 0
-149 -105 -147 -186 -189 0
-149 -105 -147 -186 -111 0
-149 -105 -147 -186 -153 0
-149 -105 -147 -186 -192 0
-149 -105 -147 -108 -189 0
-149 -105 -147 -108 -111 0
-149 -105 -147 -108 -153 0
-149 -105 -147 -108 -192 0
-149 -105 -147 -189 -111 0
-149 -105 -147 -189 -153 0
-149 -105 -147 -189 -192 0
-149 -105 -147 -111 -153 0
-149 -105 -147 -111 -192 0
-149 -105 -147 -153 -192 0
-149 -105 -186 -108 -189 0
-149 -105 -186 -108 -111 0
-149 -105 -186 -108 -153 0
-149 -105 -186 -108 -192 0
-149 -105 -186 -189 -111 0
-149 -105 -186 -189 -153 0
-149 -105 -186 -189 -192 0
-149 -105 -186 -111 -153 0
-149 -105 -186 -111 -192 0
-149 -105 -186 -153 -192 0
-149 -105 -108 -189 -111 0
-149 -105 -108 -189 -153 0
-149 -105 -108 -189 -192 0
-149 -105 -108 -111 -153 0
-149 -105 -108 -111 -192 0
-149 -105 -108 -153 -192 0
-149 -105 -189 -111 -153 0
-149 -105 -189 -111 -192 0
-149 -105 -189 -153 -192 0
-149 -105 -111 -153 -192 0
-149 -147 -186 -108 -189 0
-149 -147 -186 -108 -111 0
-149 -147 -186 -108 -153 0
-149 -147 -186 -108 -192 0
-149 -147 -186 -189 -111 0
-149 -147 -186 -189 -153 0
-149 -147 -186 -189 -192 0
-149 -147 -186 -111 -153 0
-149 -147 -186 -111 -192 0
-149 -147 -186 -153 -192 0
-149 -147 -108 -189 -111 0
-149 -147 -108 -189 -153 0
-149 -147 -108 -189 -192 0
-149 -147 -108 -111 -153 0
-149 -147 -108 -111 -192 0
-149 -147 -108 -153 -192 0
-149 -147 -189 -111 -153 0
-149 -147 -189 -111 -192 0
-149 -147 -189 -153 -192 0
-149 -147 -111 -153 -192 0
-149 -186 -108 -189 -111 0
-149 -186 -108 -189 -153 0
-149 -186 -108 -189 -192 0
-149 -186 -108 -111 -153 0
-149 -186 -108 -111 -192 0
-149 -186 -108 -153 -192 0
-149 -186 -189 -111 -153 0
-149 -186 -189 -111 -192 0
-149 -186 -189 -153 -192 0
-149 -186 -111 -153 -192 0
-149 -108 -189 -111 -153 0
-149 -108 -189 -111 -192 0
-149 -108 -189 -153 -192 0
-149 -108 -111 -153 -192 0
-149 -189 -111 -153 -192 0
-149 105 147 186 108 189 111 0
-149 105 147 186 108 189 153 0
-149 105 147 186 108 189 192 0
-149 105 147 186 108 111 153 0
-149 105 147 186 108 111 192 0
-149 105 147 186 108 153 192 0
-149 105 147 186 189 111 153 0
-149 105 147 186 189 111 192 0
-149 105 147 186 189 153 192 0
-149 105 147 186 111 153 192 0
-149 105 147 108 189 111 153 0
-149 105 147 108 189 111 192 0
-149 105 147 108 189 153 192 0
-149 105 147 108 111 153 192 0
-149 105 147 189 111 153 192 0
-149 105 186 108 189 111 153 0
-149 105 186 108 189 111 192 0
-149 105 186 108 189 153 192 0
-149 105 186 108 111 153 192 0
-149 105 186 189 111 153 192 0
-149 105 108 189 111 153 192 0
-149 147 186 108 189 111 153 0
-149 147 186 108 189 111 192 0
-149 147 186 108 189 153 192 0
-149 147 186 108 111 153 192 0
-149 147 186 189 111 153 192 0
-149 147 108 189 111 153 192 0
-149 186 108 189 111 153 192 0
-150 -103 -145 -184 -106 -187 0
-150 -103 -145 -184 -106 -109 0
-150 -103 -145 -184 -106 -151 0
-150 -103 -145 -184 -106 -190 0
-150 -103 -145 -184 -187 -109 0
-150 -103 -145 -184 -187 -151 0
-150 -103 -145 -184 -187 -190 0
-150 -103 -145 -184 -109 -151 0
-150 -103 -145 -184 -109 -190 0
-150 -103 -145 -184 -151 -190 0
-150 -103 -145 -106 -187 -109 0
-150 -103 -145 -106 -187 -151 0
-150 -103 -145 -106 -187 -190 0
-150 -103 -145 -106 -109 -151 0
-150 -103 -145 -106 -109 -190 0
-150 -103 -145 -106 -151 -190 0
-150 -103 -145 -187 -109 -151 0
-150 -103 -145 -187 -109 -190 0
-150 -103 -145 -187 -151 -190 0
-150 -103 -145 -109 -151 -190 0
-150 -103 -184 -106 -187 -109 0
-150 -103 -184 -106 -187 -151 0
-150 -103 -184 -106 -187 -190 0
-150 -103 -184 -106 -109 -151 0
-150 -103 -184 -106 -109 -190 0
-150 -103 -184 -106 -151 -190 0
-150 -103 -184 -187 -109 -151 0
-150 -103 -184 -187 -109 -190 0
-150 -103 -184 -187 -151 -190 0
-150 -103 -184 -109 -151 -190 0
-150 -103 -106 -187 -109 -151 0
-150 -103 -106 -187 -109 -190 0
-150 -103 -106 -187 -151 -190 0
-150 -103 -106 -109 -151 -190 0
-150 -103 -187 -109 -151 -190 0
-150 -145 -184 -106 -187 -109 0
-150 -145 -184 -106 -187 -151 0
-150 -145 -184 -106 -187 -190 0
-150 -145 -184 -106 -109 -151 0
-150 -145 -184 -106 -109 -190 0
-150 -145 -184 -106 -151 -190 0
-150 -145 -184 -187 -109 -151 0
-150 -145 -184 -187 -109 -190 0
-150 -145 -184 -187 -151 -190 0
-150 -145 -184 -109 -151 -190 0
-150 -145 -106 -187 -109 -151 0
-150 -145 -106 -187 -109 -190 0
-150 -145 -106 -187 -151 -190 0
-150 -145 -106 -109 -151 -190 0
-150 -145 -187 -109 -151 -190 0
-150 -184 -106 -187 -109 -151 0
-150 -184 -106 -187 -109 -190 0
-150 -184 -106 -187 -151 -190 0
-150 -184 -106 -109 -151 -190 0
-150 -184 -187 -109 -151 -190 0
-150 -106 -187 -109 -151 -190 0
-150 103 145 184 106 187 0
-150 103 145 184 106 109 0
-150 103 145 184 106 151 0
-150 103 145 184 106 190 0
-150 103 145 184 187 109 0
-150 103 145 184 187 151 0
-150 103 145 184 187 190 0
-150 103 145 184 109 151 0
-150 103 145 184 109 190 0
-150 103 145 184 151 190 0
-150 103 145 106 187 109 0
-150 103 145 106 187 151 0
-150 103 145 106 187 190 0
-150 103 145 106 109 151 0
-150 103 145 106 109 190 0
-150 103 145 106 151 190 0
-150 103 145 187 109 151 0
-150 103 145 187 109 190 0
-150 103 145 187 151 190 0
-150 103 145 109 151 190 0
-150 103 184 106 187 109 0
-150 103 184 106 187 151 0
-150 103 184 106 187 190 0
-150 103 184 106 109 151 0
-150 103 184 106 109 190 0
-150 103 184 106 151 190 0
-150 103 184 187 109 151 0
-150 103 184 187 109 190 0
-150 103 184 187 151 190 0
-150 103 184 109 151 190 0
-150 103 106 187 109 151 0
-150 103 106 187 109 190 0
-150 103 106 187 151 190 0
-150 103 106 109 151 190 0
-150 103 187 109 151 190 0
-150 145 184 106 187 109 0
-150 145 184 106 187 151 0
-150 145 184 106 187 190 0
-150 145 184 106 109 151 0
-150 145 184 106 109 190 0
-150 145 184 106 151 190 0
-150 145 184 187 109 151 0
-150 145 184 187 109 190 0
-150 145 184 187 151 190 0
-150 145 184 109 151 190 0
-150 145 106 187 109 151 0
-150 145 106 187 109 190 0
-150 145 106 187 151 190 0
-150 145 106 109 151 190 0
-150 145 187 109 151 190 0
-150 184 106 187 109 151 0
-150 184 106 187 109 190 0
-150 184 106 187 151 190 0
-150 184 106 109 151 190 0
-150 184 187 109 151 190 0
-150 106 187 109 151 190 0
-151 -152 0
-151 -153 0
-152 -153 0
-151 -107 -149 -188 0
-151 -107 -149 -110 0
-151 -107 -149 -191 0
-151 -107 -149 -113 0
-151 -107 -149 -155 0
-151 -107 -149 -194 0
-151 -107 -188 -110 0
-151 -107 -188 -191 0
-151 -107 -188 -113 0
-151 -107 -188 -155 0
-151 -107 -188 -194 0
-151 -107 -110 -191 0
-151 -107 -110 -113 0
-151 -107 -110 -155 0
-151 -107 -110 -194 0
-151 -107 -191 -113 0
-151 -107 -191 -155 0
-151 -107 -191 -194 0
-151 -107 -113 -155 0
-151 -107 -113 -194 0
-151 -107 -155 -194 0
-151 -149 -188 -110 0
-151 -149 -188 -191 0
-151 -149 -188 -113 0
-151 -149 -188 -155 0
-151 -149 -188 -194 0
-151 -149 -110 -191 0
-151 -149 -110 -113 0
-151 -149 -110 -155 0
-151 -149 -110 -194 0
-151 -149 -191 -113 0
-151 -149 -191 -155 0
-151 -149 -191 -194 0
-151 -149 -113 -155 0
-151 -149 -113 -194 0
-151 -149 -155 -194 0
-151 -188 -110 -191 0
-151 -188 -110 -113 0
-151 -188 -110 -155 0
-151 -188 -110 -194 0
-151 -188 -191 -113 0
-151 -188 -191 -155 0
-151 -188 -191 -194 0
-151 -188 -113 -155 0
-151 -188 -113 -194 0
-151 -188 -155 -194 0
-151 -110 -191 -113 0
-151 -110 -191 -155 0
-151 -110 -191 -194 0
-151 -110 -113 -155 0
-151 -110 -113 -194 0
-151 -110 -155 -194 0
-151 -191 -113 -155 0
-151 -191 -113 -194 0
-151 -191 -155 -194 0
-151 -113 -155 -194 0
-151 107 149 188 110 191 113 155 0
-151 107 149 188 110 191 113 194 0
-151 107 149 188 110 191 155 194 0
-151 107 149 188 110 113 155 194 0
-151 107 149 188 191 113 155 194 0
-151 107 149 110 191 113 155 194 0
-151 107 188 110 191 113 155 194 0
-151 149 188 110 191 113 155 194 0
-152 -108 -150 -189 -111 0
-152 -108 -150 -189 -192 0
-152 -108 -150 -189 -114 0
-152 -108 -150 -189 -156 0
-152 -108 -150 -189 -195 0
-152 -108 -150 -111 -192 0
-152 -108 -150 -111 -114 0
-152 -108 -150 -111 -156 0
-152 -108 -150 -111 -195 0
-152 -108 -150 -192 -114 0
-152 -108 -150 -192 -156 0
-152 -108 -150 -192 -195 0
-152 -108 -150 -114 -156 0
-152 -108 -150 -114 -195 0
-152 -108 -150 -156 -195 0
-152 -108 -189 -111 -192 0
-152 -108 -189 -111 -114 0
-152 -108 -189 -111 -156 0
-152 -108 -189 -111 -195 0
-152 -108 -189 -192 -114 0
-152 -108 -189 -192 -156 0
-152 -108 -189 -192 -195 0
-152 -108 -189 -114 -156 0
-152 -108 -189 -114 -195 0
-152 -108 -189 -156 -195 0
-152 -108 -111 -192 -114 0
-152 -108 -111 -192 -156 0
-152 -108 -111 -192 -195 0
-152 -108 -111 -114 -156 0
-152 -108 -111 -114 -195 0
-152 -108 -111 -156 -195 0
-152 -108 -192 -114 -156 0
-152 -108 -192 -114 -195 0
-152 -108 -192 -156 -195 0
-152 -108 -114 -156 -195 0
-152 -150 -189 -111 -192 0
-152 -150 -189 -111 -114 0
-152 -150 -189 -111 -156 0
-152 -150 -189 -111 -195 0
-152 -150 -189 -192 -114 0
-152 -150 -189 -192 -156 0
-152 -150 -189 -192 -195 0
-152 -150 -189 -114 -156 0
-152 -150 -189 -114 -195 0
-152 -150 -189 -156 -195 0
-152 -150 -111 -192 -114 0
-152 -150 -111 -192 -156 0
-152 -150 -111 -192 -195 0
-152 -150 -111 -114 -156 0
-152 -150 -111 -114 -195 0
-152 -150 -111 -156 -195 0
-152 -150 -192 -114 -156 0
-152 -150 -192 -114 -195 0
-152 -150 -192 -156 -195 0
-152 -150 -114 -156 -195 0
-152 -189 -111 -192 -114 0
-152 -189 -111 -192 -156 0
-152 -189 -111 -192 -195 0
-152 -189 -111 -114 -156 0
-152 -189 -111 -114 -195 0
-152 -189 -111 -156 -195 0
-152 -189 -192 -114 -156 0
-152 -189 -192 -114 -195 0
-152 -189 -192 -156 -195 0
-152 -189 -114 -156 -195 0
-152 -111 -192 -114 -156 0
-152 -111 -192 -114 -195 0
-152 -111 -192 -156 -195 0
-152 -111 -114 -156 -195 0
-152 -192 -114 -156 -195 0
-152 108 150 189 111 192 114 0
-152 108 150 189 111 192 156 0
-152 108 150 189 111 192 195 0
-152 108 150 189 111 114 156 0
-152 108 150 189 111 114 195 0
-152 108 150 189 111 156 195 0
-152 108 150 189 192 114 156 0
-152 108 150 189 192 114 195 0
-152 108 150 189 192 156 195 0
-152 108 150 189 114 156 195 0
-152 108 150 111 192 114 156 0
-152 108 150 111 192 114 195 0
-152 108 150 111 192 156 195 0
-152 108 150 111 114 156 195 0
-152 108 150 192 114 156 195 0
-152 108 189 111 192 114 156 0
-152 108 189 111 192 114 195 0
-152 108 189 111 192 156 195 0
-152 108 189 111 114 156 195 0
-152 108 189 192 114 156 195 0
-152 108 111 192 114 156 195 0
-152 150 189 111 192 114 156 0
-152 150 189 111 192 114 195 0
-152 150 189 111 192 156 195 0
-152 150 189 111 114 156 195 0
-152 150 189 192 114 156 195 0
-152 150 111 192 114 156 195 0
-152 189 111 192 114 156 195 0
-153 -106 -148 -187 -109 -190 0
-153 -106 -148 -187 -109 -112 0
-153 -106 -148 -187 -109 -154 0
-153 -106 -148 -187 -109 -193 0
-153 -106 -148 -187 -190 -112 0
-153 -106 -148 -187 -190 -154 0
-153 -106 -148 -187 -190 -193 0
-153 -106 -148 -187 -112 -154 0
-153 -106 -148 -187 -112 -193 0
-153 -106 -148 -187 -154 -193 0
-153 -106 -148 -109 -190 -112 0
-153 -106 -148 -109 -190 -154 0
-153 -106 -148 -109 -190 -193 0
-153 -106 -148 -109 -112 -154 0
-153 -106 -148 -109 -112 -193 0
-153 -106 -148 -109 -154 -193 0
-153 -106 -148 -190 -112 -154 0
-153 -106 -148 -190 -112 -193 0
-153 -106 -148 -190 -154 -193 0
-153 -106 -148 -112 -154 -193 0
-153 -106 -187 -109 -190 -112 0
-153 -106 -187 -109 -190 -154 0
-153 -106 -187 -109 -190 -193 0
-153 -106 -187 -109 -112 -154 0
-153 -106 -187 -109 -112 -193 0
-153 -106 -187 -109 -154 -193 0
-153 -106 -187 -190 -112 -154 0
-153 -106 -187 -190 -112 -193 0
-153 -106 -187 -190 -154 -193 0
-153 -106 -187 -112 -154 -193 0
-153 -106 -109 -190 -112 -154 0
-153 -106 -109 -190 -112 -193 0
-153 -106 -109 -190 -154 -193 0
-153 -106 -109 -112 -154 -193 0
-153 -106 -190 -112 -154 -193 0
-153 -148 -187 -109 -190 -112 0
-153 -148 -187 -109 -190 -154 0
-153 -148 -187 -109 -190 -193 0
-153 -148 -187 -109 -112 -154 0
-153 -148 -187 -109 -112 -193 0
-153 -148 -187 -109 -154 -193 0
-153 -148 -187 -190 -112 -154 0
-153 -148 -187 -190 -112 -193 0
-153 -148 -187 -190 -154 -193 0
-153 -148 -187 -112 -154 -193 0
-153 -148 -109 -190 -112 -154 0
-153 -148 -109 -190 -112 -193 0
-153 -148 -109 -190 -154 -193 0
-153 -148 -109 -112 -154 -193 0
-153 -148 -190 -112 -154 -193 0
-153 -187 -109 -190 -112 -154 0
-153 -187 -109 -190 -112 -193 0
-153 -187 -109 -190 -154 -193 0
-153 -187 -109 -112 -154 -193 0
-153 -187 -190 -112 -154 -193 0
-153 -109 -190 -112 -154 -193 0
-153 106 148 187 109 190 0
-153 106 148 187 109 112 0
-153 106 148 187 109 154 0
-153 106 148 187 109 193 0
-153 106 148 187 190 112 0
-153 106 148 187 190 154 0
-153 106 148 187 190 193 0
-153 106 148 187 112 154 0
-153 106 148 187 112 193 0
-153 106 148 187 154 193 0
-153 106 148 109 190 112 0
-153 106 148 109 190 154 0
-153 106 148 109 190 193 0
-153 106 148 109 112 154 0
-153 106 148 109 112 193 0
-153 106 148 109 154 193 0
-153 106 148 190 112 154 0
-153 106 148 190 112 193 0
-153 106 148 190 154 193 0
-153 106 148 112 154 193 0
-153 106 187 109 190 112 0
-153 106 187 109 190 154 0
-153 106 187 109 190 193 0
-153 106 187 109 112 154 0
-153 106 187 109 112 193 0
-153 106 187 109 154 193 0
-153 106 187 190 112 154 0
-153 106 187 190 112 193 0
-153 106 187 190 154 193 0
-153 106 187 112 154 193 0
-153 106 109 190 112 154 0
-153 106 109 190 112 193 0
-153 106 109 190 154 193 0
-153 106 109 112 154 193 0
-153 106 190 112 154 193 0
-153 148 187 109 190 112 0
-153 148 187 109 190 154 0
-153 148 187 109 190 193 0
-153 148 187 109 112 154 0
-153 148 187 109 112 193 0
-153 148 187 109 154 193 0
-153 148 187 190 112 154 0
-153 148 187 190 112 193 0
-153 148 187 190 154 193 0
-153 148 187 112 154 193 0
-153 148 109 190 112 154 0
-153 148 109 190 112 193 0
-153 148 109 190 154 193 0
-153 148 109 112 154 193 0
-153 148 190 112 154 193 0
-153 187 109 190 112 154 0
-153 187 109 190 112 193 0
-153 187 109 190 154 193 0
-153 187 109 112 154 193 0
-153 187 190 112 154 193 0
-153 109 190 112 154 193 0
-154 -155 0
-154 -156 0
-155 -156 0
-154 -110 -152 -191 0
-154 -110 -152 -113 0
-154 -110 -152 -194 0
-154 -110 -152 -116 0
-154 -110 -152 -158 0
-154 -110 -152 -197 0
-154 -110 -191 -113 0
-154 -110 -191 -194 0
-154 -110 -191 -116 0
-154 -110 -191 -158 0
-154 -110 -191 -197 0
-154 -110 -113 -194 0
-154 -110 -113 -116 0
-154 -110 -113 -158 0
-154 -110 -113 -197 0
-154 -110 -194 -116 0
-154 -110 -194 -158 0
-154 -110 -194 -197 0
-154 -110 -116 -158 0
-154 -110 -116 -197 0
-154 -110 -158 -197 0
-154 -152 -191 -113 0
-154 -152 -191 -194 0
-154 -152 -191 -116 0
-154 -152 -191 -158 0
-154 -152 -191 -197 0
-154 -152 -113 -194 0
-154 -152 -113 -116 0
-154 -152 -113 -158 0
-154 -152 -113 -197 0
-154 -152 -194 -116 0
-154 -152 -194 -158 0
-154 -152 -194 -197 0
-154 -152 -116 -158 0
-154 -152 -116 -197 0
-154 -152 -158 -197 0
-154 -191 -113 -194 0
-154 -191 -113 -116 0
-154 -191 -113 -158 0
-154 -191 -113 -197 0
-154 -191 -194 -116 0
-154 -191 -194 -158 0
-154 -191 -194 -197 0
-154 -191 -116 -158 0
-154 -191 -116 -197 0
-154 -191 -158 -197 0
-154 -113 -194 -116 0
-154 -113 -194 -158 0
-154 -113 -194 -197 0
-154 -113 -116 -158 0
-154 -113 -116 -197 0
-154 -113 -158 -197 0
-154 -194 -116 -158 0
-154 -194 -116 -197 0
-154 -194 -158 -197 0
-154 -116 -158 -197 0
-154 110 152 191 113 194 116 158 0
-154 110 152 191 113 194 116 197 0
-154 110 152 191 113 194 158 197 0
-154 110 152 191 113 116 158 197 0
-154 110 152 191 194 116 158 197 0
-154 110 152 113 194 116 158 197 0
-154 110 191 113 194 116 158 197 0
-154 152 191 113 194 116 158 197 0
-155 -111 -153 -192 -114 0
-155 -111 -153 -192 -195 0
-155 -111 -153 -192 -117 0
-155 -111 -153 -192 -159 0
-155 -111 -153 -192 -198 0
-155 -111 -153 -114 -195 0
-155 -111 -153 -114 -117 0
-155 -111 -153 -114 -159 0
-155 -111 -153 -114 -198 0
-155 -111 -153 -195 -117 0
-155 -111 -153 -195 -159 0
-155 -111 -153 -195 -198 0
-155 -111 -153 -117 -159 0
-155 -111 -153 -117 -198 0
-155 -111 -153 -159 -198 0
-155 -111 -192 -114 -195 0
-155 -111 -192 -114 -117 0
-155 -111 -192 -114 -159 0
-155 -111 -192 -114 -198 0
-155 -111 -192 -195 -117 0
-155 -111 -192 -195 -159 0
-155 -111 -192 -195 -198 0
-155 -111 -192 -117 -159 0
-155 -111 -192 -117 -198 0
-155 -111 -192 -159 -198 0
-155 -111 -114 -195 -117 0
-155 -111 -114 -195 -159 0
-155 -111 -114 -195 -198 0
-155 -111 -114 -117 -159 0
-155 -111 -114 -117 -198 0
-155 -111 -114 -159 -198 0
-155 -111 -195 -117 -159 0
-155 -111 -195 -117 -198 0
-155 -111 -195 -159 -198 0
-155 -111 -117 -159 -198 0
-155 -153 -192 -114 -195 0
-155 -153 -192 -114 -117 0
-155 -153 -192 -114 -159 0
-155 -153 -192 -114 -198 0
-155 -153 -192 -195 -117 0
-155 -153 -192 -195 -159 0
-155 -153 -192 -195 -198 0
-155 -153 -192 -117 -159 0
-155 -153 -192 -117 -198 0
-155 -153 -192 -159 -198 0
-155 -153 -114 -195 -117 0
-155 -153 -114 -195 -159 0
-155 -153 -114 -195 -198 0
-155 -153 -114 -117 -159 0
-155 -153 -114 -117 -198 0
-155 -153 -114 -159 -198 0
-155 -153 -195 -117 -159 0
-155 -153 -195 -117 -198 0
-155 -153 -195 -159 -198 0
-155 -153 -117 -159 -198 0
-155 -192 -114 -195 -117 0
-155 -192 -114 -195 -159 0
-155 -192 -114 -195 -198 0
-155 -192 -114 -117 -159 0
-155 -192 -114 -117 -198 0
-155 -192 -114 -159 -198 0
-155 -192 -195 -117 -159 0
-155 -192 -195 -117 -198 0
-155 -192 -195 -159 -198 0
-155 -192 -117 -159 -198 0
-155 -114 -195 -117 -159 0
-155 -114 -195 -117 -198 0
-155 -114 -195 -159 -198 0
-155 -114 -117 -159 -198 0
-155 -195 -117 -159 -198 0
-155 111 153 192 114 195 117 0
-155 111 153 192 114 195 159 0
-155 111 153 192 114 195 198 0
-155 111 153 192 114 117 159 0
-155 111 153 192 114 117 198 0
-155 111 153 192 114 159 198 0
-155 111 153 192 195 117 159 0
-155 111 153 192 195 117 198 0
-155 111 153 192 195 159 198 0
-155 111 153 192 117 159 198 0
-155 111 153 114 195 117 159 0
-155 111 153 114 195 117 198 0
-155 111 153 114 195 159 198 0
-155 111 153 114 117 159 198 0
-155 111 153 195 117 159 198 0
-155 111 192 114 195 117 159 0
-155 111 192 114 195 117 198 0
-155 111 192 114 195 159 198 0
-155 111 192 114 117 159 198 0
-155 111 192 195 117 159 198 0
-155 111 114 195 117 159 198 0
-155 153 192 114 195 117 159 0
-155 153 192 114 195 117 198 0
-155 153 192 114 195 159 198 0
-155 153 192 114 117 159 198 0
-155 153 192 195 117 159 198 0
-155 153 114 195 117 159 198 0
-155 192 114 195 117 159 198 0
-156 -109 -151 -190 -112 -193 0
-156 -109 -151 -190 -112 -115 0
-156 -109 -151 -190 -112 -157 0
-156 -109 -151 -190 -112 -196 0
-156 -109 -151 -190 -193 -115 0
-156 -109 -151 -190 -193 -157 0
-156 -109 -151 -190 -193 -196 0
-156 -109 -151 -190 -115 -157 0
-156 -109 -151 -190 -115 -196 0
-156 -109 -151 -190 -157 -196 0
-156 -109 -151 -112 -193 -115 0
-156 -109 -151 -112 -193 -157 0
-156 -109 -151 -112 -193 -196 0
-156 -109 -151 -112 -115 -157 0
-156 -109 -151 -112 -115 -196 0
-156 -109 -151 -112 -157 -196 0
-156 -109 -151 -193 -115 -157 0
-156 -109 -151 -193 -115 -196 0
-156 -109 -151 -193 -157 -196 0
-156 -109 -151 -115 -157 -196 0
-156 -109 -190 -112 -193 -115 0
-156 -109 -190 -112 -193 -157 0
-156 -109 -190 -112 -193 -196 0
-156 -109 -190 -112 -115 -157 0
-156 -109 -190 -112 -115 -196 0
-156 -109 -190 -112 -157 -196 0
-156 -109 -190 -193 -115 -157 0
-156 -109 -190 -193 -115 -196 0
-156 -109 -190 -193 -157 -196 0
-156 -109 -190 -115 -157 -196 0
-156 -109 -112 -193 -115 -157 0
-156 -109 -112 -193 -115 -196 0
-156 -109 -112 -193 -157 -196 0
-156 -109 -112 -115 -157 -196 0
-156 -109 -193 -115 -157 -196 0
-156 -151 -190 -112 -193 -115 0
-156 -151 -190 -112 -193 -157 0
-156 -151 -190 -112 -193 -196 0
-156 -151 -190 -112 -115 -157 0
-156 -151 -190 -112 -115 -196 0
-156 -151 -190 -112 -157 -196 0
-156 -151 -190 -193 -115 -157 0
-156 -151 -190 -193 -115 -196 0
-156 -151 -190 -193 -157 -196 0
-156 -151 -190 -115 -157 -196 0
-156 -151 -112 -193 -115 -157 0
-156 -151 -112 -193 -115 -196 0
-156 -151 -112 -193 -157 -196 0
-156 -151 -112 -115 -157 -196 0
-156 -151 -193 -115 -157 -196 0
-156 -190 -112 -193 -115 -157 0
-156 -190 -112 -193 -115 -196 0
-156 -190 -112 -193 -157 -196 0
-156 -190 -112 -115 -157 -196 0
-156 -190 -193 -115 -157 -196 0
-156 -112 -193 -115 -157 -196 0
-156 109 151 190 112 193 0
-156 109 151 190 112 115 0
-156 109 151 190 112 157 0
-156 109 151 190 112 196 0
-156 109 151 190 193 115 0
-156 109 151 190 193 157 0
-156 109 151 190 193 196 0
-156 109 151 190 115 157 0
-156 109 151 190 115 196 0
-156 109 151 190 157 196 0
-156 109 151 112 193 115 0
-156 109 151 112 193 157 0
-156 109 151 112 193 196 0
-156 109 151 112 115 157 0
-156 109 151 112 115 196 0
-156 109 151 112 157 196 0
-156 109 151 193 115 157 0
-156 109 151 193 115 196 0
-156 109 151 193 157 196 0
-156 109 151 115 157 196 0
-156 109 190 112 193 115 0
-156 109 190 112 193 157 0
-156 109 190 112 193 196 0
-156 109 190 112 115 157 0
-156 109 190 112 115 196 0
-156 109 190 112 157 196 0
-156 109 190 193 115 157 0
-156 109 190 193 115 196 0
-156 109 190 193 157 196 0
-156 109 190 115 157 196 0
-156 109 112 193 115 157 0
-156 109 112 193 115 196 0
-156 109 112 193 157 196 0
-156 109 112 115 157 196 0
-156 109 193 115 157 196 0
-156 151 190 112 193 115 0
-156 151 190 112 193 157 0
-156 151 190 112 193 196 0
-156 151 190 112 115 157 0
-156 151 190 112 115 196 0
-156 151 190 112 157 196 0
-156 151 190 193 115 157 0
-156 151 190 193 115 196 0
-156 151 190 193 157 196 0
-156 151 190 115 157 196 0
-156 151 112 193 115 157 0
-156 151 112 193 115 196 0
-156 151 112 193 157 196 0
-156 151 112 115 157 196 0
-156 151 193 115 157 196 0
-156 190 112 193 115 157 0
-156 190 112 193 115 196 0
-156 190 112 193 157 196 0
-156 190 112 115 157 196 0
-156 190 193 115 157 196 0
-156 112 193 115 157 196 0
-157 -158 0
-157 -159 0
-158 -159 0
-157 -113 -155 -194 0
-157 -113 -155 -116 0
-157 -113 -155 -197 0
-157 -113 -155 -119 0
-157 -113 -155 -161 0
-157 -113 -155 -200 0
-157 -113 -194 -116 0
-157 -113 -194 -197 0
-157 -113 -194 -119 0
-157 -113 -194 -161 0
-157 -113 -194 -200 0
-157 -113 -116 -197 0
-157 -113 -116 -119 0
-157 -113 -116 -161 0
-157 -113 -116 -200 0
-157 -113 -197 -119 0
-157 -113 -197 -161 0
-157 -113 -197 -200 0
-157 -113 -119 -161 0
-157 -113 -119 -200 0
-157 -113 -161 -200 0
-157 -155 -194 -116 0
-157 -155 -194 -197 0
-157 -155 -194 -119 0
-157 -155 -194 -161 0
-157 -155 -194 -200 0
-157 -155 -116 -197 0
-157 -155 -116 -119 0
-157 -155 -116 -161 0
-157 -155 -116 -200 0
-157 -155 -197 -119 0
-157 -155 -197 -161 0
-157 -155 -197 -200 0
-157 -155 -119 -161 0
-157 -155 -119 -200 0
-157 -155 -161 -200 0
-157 -194 -116 -197 0
-157 -194 -116 -119 0
-157 -194 -116 -161 0
-157 -194 -116 -200 0
-157 -194 -197 -119 0
-157 -194 -197 -161 0
-157 -194 -197 -200 0
-157 -194 -119 -161 0
-157 -194 -119 -200 0
-157 -194 -161 -200 0
-157 -116 -197 -119 0
-157 -116 -197 -161 0
-157 -116 -197 -200 0
-157 -116 -119 -161 0
-157 -116 -119 -200 0
-157 -116 -161 -200 0
-157 -197 -119 -161 0
-157 -197 -119 -200 0
-157 -197 -161 -200 0
-157 -119 -161 -200 0
-157 113 155 194 116 197 119 161 0
-157 113 155 194 116 197 119 200 0
-157 113 155 194 116 197 161 200 0
-157 113 155 194 116 119 161 200 0
-157 113 155 194 197 119 161 200 0
-157 113 155 116 197 119 161 200 0
-157 113 194 116 197 119 161 200 0
-157 155 194 116 197 119 161 200 0
-158 -114 -156 -195 -117 0
-158 -114 -156 -195 -198 0
-158 -114 -156 -195 -120 0
-158 -114 -156 -195 -162 0
-158 -114 -156 -195 -201 0
-158 -114 -156 -117 -198 0
-158 -114 -156 -117 -120 0
-158 -114 -156 -117 -162 0
-158 -114 -156 -117 -201 0
-158 -114 -156 -198 -120 0
-158 -114 -156 -198 -162 0
-158 -114 -156 -198 -201 0
-158 -114 -156 -120 -162 0
-158 -114 -156 -120 -201 0
-158 -114 -156 -162 -201 0
-158 -114 -195 -117 -198 0
-158 -114 -195 -117 -120 0
-158 -114 -195 -117 -162 0
-158 -114 -195 -117 -201 0
-158 -114 -195 -198 -120 0
-158 -114 -195 -198 -162 0
-158 -114 -195 -198 -201 0
-158 -114 -195 -120 -162 0
-158 -114 -195 -120 -201 0
-158 -114 -195 -162 -201 0
-158 -114 -117 -198 -120 0
-158 -114 -117 -198 -162 0
-158 -114 -117 -198 -201 0
-158 -114 -117 -120 -162 0
-158 -114 -117 -120 -201 0
-158 -114 -117 -162 -201 0
-158 -114 -198 -120 -162 0
-158 -114 -198 -120 -201 0
-158 -114 -198 -162 -201 0
-158 -114 -120 -162 -201 0
-158 -156 -195 -117 -198 0
-158 -156 -195 -117 -120 0
-158 -156 -195 -117 -162 0
-158 -156 -195 -117 -201 0
-158 -156 -195 -198 -120 0
-158 -156 -195 -198 -162 0
-158 -156 -195 -198 -201 0
-158 -156 -195 -120 -162 0
-158 -156 -195 -120 -201 0
-158 -156 -195 -162 -201 0
-158 -156 -117 -198 -120 0
-158 -156 -117 -198 -162 0
-158 -156 -117 -198 -201 0
-158 -156 -117 -120 -162 0
-158 -156 -117 -120 -201 0
-158 -156 -117 -162 -201 0
-158 -156 -198 -120 -162 0
-158 -156 -198 -120 -201 0
-158 -156 -198 -162 -201 0
-158 -156 -120 -162 -201 0
-158 -195 -117 -198 -120 0
-158 -195 -117 -198 -162 0
-158 -195 -117 -198 -201 0
-158 -195 -117 -120 -162 0
-158 -195 -117 -120 -201 0
-158 -195 -117 -162 -201 0
-158 -195 -198 -120 -162 0
-158 -195 -198 -120 -201 0
-158 -195 -198 -162 -201 0
-158 -195 -120 -162 -201 0
-158 -117 -198 -120 -162 0
-158 -117 -198 -120 -201 0
-158 -117 -198 -162 -201 0
-158 -117 -120 -162 -201 0
-158 -198 -120 -162 -201 0
-158 114 156 195 117 198 120 0
-158 114 156 195 117 198 162 0
-158 114 156 195 117 198 201 0
-158 114 156 195 117 120 162 0
-158 114 156 195 117 120 201 0
-158 114 156 195 117 162 201 0
-158 114 156 195 198 120 162 0
-158 114 156 195 198 120 201 0
-158 114 156 195 198 162 201 0
-158 114 156 195 120 162 201 0
-158 114 156 117 198 120 162 0
-158 114 156 117 198 120 201 0
-158 114 156 117 198 162 201 0
-158 114 156 117 120 162 201 0
-158 114 156 198 120 162 201 0
-158 114 195 117 198 120 162 0
-158 114 195 117 198 120 201 0
-158 114 195 117 198 162 201 0
-158 114 195 117 120 162 201 0
-158 114 195 198 120 162 201 0
-158 114 117 198 120 162 201 0
-158 156 195 117 198 120 162 0
-158 156 195 117 198 120 201 0
-158 156 195 117 198 162 201 0
-158 156 195 117 120 162 201 0
-158 156 195 198 120 162 201 0
-158 156 117 198 120 162 201 0
-158 195 117 198 120 162 201 0
-159 -112 -154 -193 -115 -196 0
-159 -112 -154 -193 -115 -118 0
-159 -112 -154 -193 -115 -160 0
-159 -112 -154 -193 -115 -199 0
-159 -112 -154 -193 -196 -118 0
-159 -112 -154 -193 -196 -160 0
-159 -112 -154 -193 -196 -199 0
-159 -112 -154 -193 -118 -160 0
-159 -112 -154 -193 -118 -199 0
-159 -112 -154 -193 -160 -199 0
-159 -112 -154 -115 -196 -118 0
-159 -112 -154 -115 -196 -160 0
-159 -112 -154 -115 -196 -199 0
-159 -112 -154 -115 -118 -160 0
-159 -112 -154 -115 -118 -199 0
-159 -112 -154 -115 -160 -199 0
-159 -112 -154 -196 -118 -160 0
-159 -112 -154 -196 -118 -199 0
-159 -112 -154 -196 -160 -199 0
-159 -112 -154 -118 -160 -199 0
-159 -112 -193 -115 -196 -118 0
-159 -112 -193 -115 -196 -160 0
-159 -112 -193 -115 -196 -199 0
-159 -112 -193 -115 -118 -160 0
-159 -112 -193 -115 -118 -199 0
-159 -112 -193 -115 -160 -199 0
-159 -112 -193 -196 -118 -160 0
-159 -112 -193 -196 -118 -199 0
-159 -112 -193 -196 -160 -199 0
-159 -112 -193 -118 -160 -199 0
-159 -112 -115 -196 -118 -160 0
-159 -112 -115 -196 -118 -199 0
-159 -112 -115 -196 -160 -199 0
-159 -112 -115 -118 -160 -199 0
-159 -112 -196 -118 -160 -199 0
-159 -154 -193 -115 -196 -118 0
-159 -154 -193 -115 -196 -160 0
-159 -154 -193 -115 -196 -199 0
-159 -154 -193 -115 -118 -160 0
-159 -154 -193 -115 -118 -199 0
-159 -154 -193 -115 -160 -199 0
-159 -154 -193 -196 -118 -160 0
-159 -154 -193 -196 -118 -199 0
-159 -154 -193 -196 -160 -199 0
-159 -154 -193 -118 -160 -199 0
-159 -154 -115 -196 -118 -160 0
-159 -154 -115 -196 -118 -199 0
-159 -154 -115 -196 -160 -199 0
-159 -154 -115 -118 -160 -199 0
-159 -154 -196 -118 -160 -199 0
-159 -193 -115 -196 -118 -160 0
-159 -193 -115 -196 -118 -199 0
-159 -193 -115 -196 -160 -199 0
-159 -193 -115 -118 -160 -199 0
-159 -193 -196 -118 -160 -199 0
-159 -115 -196 -118 -160 -199 0
-159 112 154 193 115 196 0
-159 112 154 193 115 118 0
-159 112 154 193 115 160 0
-159 112 154 193 115 199 0
-159 112 154 193 196 118 0
-159 112 154 193 196 160 0
-159 112 154 193 196 199 0
-159 112 154 193 118 160 0
-159 112 154 193 118 199 0
-159 112 154 193 160 199 0
-159 112 154 115 196 118 0
-159 112 154 115 196 160 0
-159 112 154 115 196 199 0
-159 112 154 115 118 160 0
-159 112 154 115 118 199 0
-159 112 154 115 160 199 0
-159 112 154 196 118 160 0
-159 112 154 196 118 199 0
-159 112 154 196 160 199 0
-159 112 154 118 160 199 0
-159 112 193 115 196 118 0
-159 112 193 115 196 160 0
-159 112 193 115 196 199 0
-159 112 193 115 118 160 0
-159 112 193 115 118 199 0
-159 112 193 115 160 199 0
-159 112 193 196 118 160 0
-159 112 193 196 118 199 0
-159 112 193 196 160 199 0
-159 112 193 118 160 199 0
-159 112 115 196 118 160 0
-159 112 115 196 118 199 0
-159 112 115 196 160 199 0
-159 112 115 118 160 199 0
-159 112 196 118 160 199 0
-159 154 193 115 196 118 0
-159 154 193 115 196 160 0
-159 154 193 115 196 199 0
-159 154 193 115 118 160 0
-159 154 193 115 118 199 0
-159 154 193 115 160 199 0
-159 154 193 196 118 160 0
-159 154 193 196 118 199 0
-159 154 193 196 160 199 0
-159 154 193 118 160 199 0
-159 154 115 196 118 160 0
-159 154 115 196 118 199 0
-159 154 115 196 160 199 0
-159 154 115 118 160 199 0
-159 154 196 118 160 199 0
-159 193 115 196 118 160 0
-159 193 115 196 118 199 0
-159 193 115 196 160 199 0
-159 193 115 118 160 199 0
-159 193 196 118 160 199 0
-159 115 196 118 160 199 0
-160 -161 0
-160 -162 0
-161 -162 0
-160 -116 -158 -197 0
-160 -116 -158 -119 0
-160 -116 -158 -200 0
-160 -116 -158 -122 0
-160 -116 -158 -164 0
-160 -116 -158 -203 0
-160 -116 -197 -119 0
-160 -116 -197 -200 0
-160 -116 -197 -122 0
-160 -116 -197 -164 0
-160 -116 -197 -203 0
-160 -116 -119 -200 0
-160 -116 -119 -122 0
-160 -116 -119 -164 0
-160 -116 -119 -203 0
-160 -116 -200 -122 0
-160 -116 -200 -164 0
-160 -116 -200 -203 0
-160 -116 -122 -164 0
-160 -116 -122 -203 0
-160 -116 -164 -203 0
-160 -158 -197 -119 0
-160 -158 -197 -200 0
-160 -158 -197 -122 0
-160 -158 -197 -164 0
-160 -158 -197 -203 0
-160 -158 -119 -200 0
-160 -158 -119 -122 0
-160 -158 -119 -164 0
-160 -158 -119 -203 0
-160 -158 -200 -122 0
-160 -158 -200 -164 0
-160 -158 -200 -203 0
-160 -158 -122 -164 0
-160 -158 -122 -203 0
-160 -158 -164 -203 0
-160 -197 -119 -200 0
-160 -197 -119 -122 0
-160 -197 -119 -164 0
-160 -197 -119 -203 0
-160 -197 -200 -122 0
-160 -197 -200 -164 0
-160 -197 -200 -203 0
-160 -197 -122 -164 0
-160 -197 -122 -203 0
-160 -197 -164 -203 0
-160 -119 -200 -122 0
-160 -119 -200 -164 0
-160 -119 -200 -203 0
-160 -119 -122 -164 0
-160 -119 -122 -203 0
-160 -119 -164 -203 0
-160 -200 -122 -164 0
-160 -200 -122 -203 0
-160 -200 -164 -203 0
-160 -122 -164 -203 0
-160 116 158 197 119 200 122 164 0
-160 116 158 197 119 200 122 203 0
-160 116 158 197 119 200 164 203 0
-160 116 158 197 119 122 164 203 0
-160 116 158 197 200 122 164 203 0
-160 116 158 119 200 122 164 203 0
-160 116 197 119 200 122 164 203 0
-160 158 197 119 200 122 164 203 0
-161 -117 -159 -198 -120 0
-161 -117 -159 -198 -201 0
-161 -117 -159 -198 -123 0
-161 -117 -159 -198 -165 0
-161 -117 -159 -198 -204 0
-161 -117 -159 -120 -201 0
-161 -117 -159 -120 -123 0
-161 -117 -159 -120 -165 0
-161 -117 -159 -120 -204 0
-161 -117 -159 -201 -123 0
-161 -117 -159 -201 -165 0
-161 -117 -159 -201 -204 0
-161 -117 -159 -123 -165 0
-161 -117 -159 -123 -204 0
-161 -117 -159 -165 -204 0
-161 -117 -198 -120 -201 0
-161 -117 -198 -120 -123 0
-161 -117 -198 -120 -165 0
-161 -117 -198 -120 -204 0
-161 -117 -198 -201 -123 0
-161 -117 -198 -201 -165 0
-161 -117 -198 -201 -204 0
-161 -117 -198 -123 -165 0
-161 -117 -198 -123 -204 0
-161 -117 -198 -165 -204 0
-161 -117 -120 -201 -123 0
-161 -117 -120 -201 -165 0
-161 -117 -120 -201 -204 0
-161 -117 -120 -123 -165 0
-161 -117 -120 -123 -204 0
-161 -117 -120 -165 -204 0
-161 -117 -201 -123 -165 0
-161 -117 -201 -123 -204 0
-161 -117 -201 -165 -204 0
-161 -117 -123 -165 -204 0
-161 -159 -198 -120 -201 0
-161 -159 -198 -120 -123 0
-161 -159 -198 -120 -165 0
-161 -159 -198 -120 -204 0
-161 -159 -198 -201 -123 0
-161 -159 -198 -201 -165 0
-161 -159 -198 -201 -204 0
-161 -159 -198 -123 -165 0
-161 -159 -198 -123 -204 0
-161 -159 -198 -165 -204 0
-161 -159 -120 -201 -123 0
-161 -159 -120 -201 -165 0
-161 -159 -120 -201 -204 0
-161 -159 -120 -123 -165 0
-161 -159 -120 -123 -204 0
-161 -159 -120 -165 -204 0
-161 -159 -201 -123 -165 0
-161 -159 -201 -123 -204 0
-161 -159 -201 -165 -204 0
-161 -159 -123 -165 -204 0
-161 -198 -120 -201 -123 0
-161 -198 -120 -201 -165 0
-161 -198 -120 -201 -204 0
-161 -198 -120 -123 -165 0
-161 -198 -120 -123 -204 0
-161 -198 -120 -165 -204 0
-161 -198 -201 -123 -165 0
-161 -198 -201 -123 -204 0
-161 -198 -201 -165 -204 0
-161 -198 -123 -165 -204 0
-161 -120 -201 -123 -165 0
-161 -120 -201 -123 -204 0
-161 -120 -201 -165 -204 0
-161 -120 -123 -165 -204 0
-161 -201 -123 -165 -204 0
-161 117 159 198 120 201 123 0
-161 117 159 198 120 201 165 0
-161 117 159 198 120 201 204 0
-161 117 159 198 120 123 165 0
-161 117 159 198 120 123 204 0
-161 117 159 198 120 165 204 0
-161 117 159 198 201 123 165 0
-161 117 159 198 201 123 204 0
-161 117 159 198 201 165 204 0
-161 117 159 198 123 165 204 0
-161 117 159 120 201 123 165 0
-161 117 159 120 201 123 204 0
-161 117 159 120 201 165 204 0
-161 117 159 120 123 165 204 0
-161 117 159 201 123 165 204 0
-161 117 198 120 201 123 165 0
-161 117 198 120 201 123 204 0
-161 117 198 120 201 165 204 0
-161 117 198 120 123 165 204 0
-161 117 198 201 123 165 204 0
-161 117 120 201 123 165 204 0
-161 159 198 120 201 123 165 0
-161 159 198 120 201 123 204 0
-161 159 198 120 201 165 204 0
-161 159 198 120 123 165 204 0
-161 159 198 201 123 165 204 0
-161 159 120 201 123 165 204 0
-161 198 120 201 123 165 204 0
-162 -115 -157 -196 -118 -199 0
-162 -115 -157 -196 -118 -121 0
-162 -115 -157 -196 -118 -163 0
-162 -115 -157 -196 -118 -202 0
-162 -115 -157 -196 -199 -121 0
-162 -115 -157 -196 -199 -163 0
-162 -115 -157 -196 -199 -202 0
-162 -115 -157 -196 -121 -163 0
-162 -115 -157 -196 -121 -202 0
-162 -115 -157 -196 -163 -202 0
-162 -115 -157 -118 -199 -121 0
-162 -115 -157 -118 -199 -163 0
-162 -115 -157 -118 -199 -202 0
-162 -115 -157 -118 -121 -163 0
-162 -115 -157 -118 -121 -202 0
-162 -115 -157 -118 -163 -202 0
-162 -115 -157 -199 -121 -163 0
-162 -115 -157 -199 -121 -202 0
-162 -115 -157 -199 -163 -202 0
-162 -115 -157 -121 -163 -202 0
-162 -115 -196 -118 -199 -121 0
-162 -115 -196 -118 -199 -163 0
-162 -115 -196 -118 -199 -202 0
-162 -115 -196 -118 -121 -163 0
-162 -115 -196 -118 -121 -202 0
-162 -115 -196 -118 -163 -202 0
-162 -115 -196 -199 -121 -163 0
-162 -115 -196 -199 -121 -202 0
-162 -115 -196 -199 -163 -202 0
-162 -115 -196 -121 -163 -202 0
-162 -115 -118 -199 -121 -163 0
-162 -115 -118 -199 -121 -202 0
-162 -115 -118 -199 -163 -202 0
-162 -115 -118 -121 -163 -202 0
-162 -115 -199 -121 -163 -202 0
-162 -157 -196 -118 -199 -121 0
-162 -157 -196 -118 -199 -163 0
-162 -157 -196 -118 -199 -202 0
-162 -157 -196 -118 -121 -163 0
-162 -157 -196 -118 -121 -202 0
-162 -157 -196 -118 -163 -202 0
-162 -157 -196 -199 -121 -163 0
-162 -157 -196 -199 -121 -202 0
-162 -157 -196 -199 -163 -202 0
-162 -157 -196 -121 -163 -202 0
-162 -157 -118 -199 -121 -163 0
-162 -157 -118 -199 -121 -202 0
-162 -157 -118 -199 -163 -202 0
-162 -157 -118 -121 -163 -202 0
-162 -157 -199 -121 -163 -202 0
-162 -196 -118 -199 -121 -163 0
-162 -196 -118 -199 -121 -202 0
-162 -196 -118 -199 -163 -202 0
-162 -196 -118 -121 -163 -202 0
-162 -196 -199 -121 -163 -202 0
-162 -118 -199 -121 -163 -202 0
-162 115 157 196 118 199 0
-162 115 157 196 118 121 0
-162 115 157 196 118 163 0
-162 115 157 196 118 202 0
-162 115 157 196 199 121 0
-162 115 157 196 199 163 0
-162 115 157 196 199 202 0
-162 115 157 196 121 163 0
-162 115 157 196 121 202 0
-162 115 157 196 163 202 0
-162 115 157 118 199 121 0
-162 115 157 118 199 163 0
-162 115 157 118 199 202 0
-162 115 157 118 121 163 0
-162 115 157 118 121 202 0
-162 115 157 118 163 202 0
-162 115 157 199 121 163 0
-162 115 157 199 121 202 0
-162 115 157 199 163 202 0
-162 115 157 121 163 202 0
-162 115 196 118 199 121 0
-162 115 196 118 199 163 0
-162 115 196 118 199 202 0
-162 115 196 118 121 163 0
-162 115 196 118 121 202 0
-162 115 196 118 163 202 0
-162 115 196 199 121 163 0
-162 115 196 199 121 202 0
-162 115 196 199 163 202 0
-162 115 196 121 163 202 0
-162 115 118 199 121 163 0
-162 115 118 199 121 202 0
-162 115 118 199 163 202 0
-162 115 118 121 163 202 0
-162 115 199 121 163 202 0
-162 157 196 118 199 121 0
-162 157 196 118 199 163 0
-162 157 196 118 199 202 0
-162 157 196 118 121 163 0
-162 157 196 118 121 202 0
-162 157 196 118 163 202 0
-162 157 196 199 121 163 0
-162 157 196 199 121 202 0
-162 157 196 199 163 202 0
-162 157 196 121 163 202 0
-162 157 118 199 121 163 0
-162 157 118 199 121 202 0
-162 157 118 199 163 202 0
-162 157 118 121 163 202 0
-162 157 199 121 163 202 0
-162 196 118 199 121 163 0
-162 196 118 199 121 202 0
-162 196 118 199 163 202 0
-162 196 118 121 163 202 0
-162 196 199 121 163 202 0
-162 118 199 121 163 202 0
-163 -164 0
-163 -165 0
-164 -165 0
-163 -119 -161 -200 0
-163 -119 -161 -122 0
-163 -119 -161 -203 0
-163 -119 -161 -125 0
-163 -119 -161 -167 0
-163 -119 -161 -206 0
-163 -119 -200 -122 0
-163 -119 -200 -203 0
-163 -119 -200 -125 0
-163 -119 -200 -167 0
-163 -119 -200 -206 0
-163 -119 -122 -203 0
-163 -119 -122 -125 0
-163 -119 -122 -167 0
-163 -119 -122 -206 0
-163 -119 -203 -125 0
-163 -119 -203 -167 0
-163 -119 -203 -206 0
-163 -119 -125 -167 0
-163 -119 -125 -206 0
-163 -119 -167 -206 0
-163 -161 -200 -122 0
-163 -161 -200 -203 0
-163 -161 -200 -125 0
-163 -161 -200 -167 0
-163 -161 -200 -206 0
-163 -161 -122 -203 0
-163 -161 -122 -125 0
-163 -161 -122 -167 0
-163 -161 -122 -206 0
-163 -161 -203 -125 0
-163 -161 -203 -167 0
-163 -161 -203 -206 0
-163 -161 -125 -167 0
-163 -161 -125 -206 0
-163 -161 -167 -206 0
-163 -200 -122 -203 0
-163 -200 -122 -125 0
-163 -200 -122 -167 0
-163 -200 -122 -206 0
-163 -200 -203 -125 0
-163 -200 -203 -167 0
-163 -200 -203 -206 0
-163 -200 -125 -167 0
-163 -200 -125 -206 0
-163 -200 -167 -206 0
-163 -122 -203 -125 0
-163 -122 -203 -167 0
-163 -122 -203 -206 0
-163 -122 -125 -167 0
-163 -122 -125 -206 0
-163 -122 -167 -206 0
-163 -203 -125 -167 0
-163 -203 -125 -206 0
-163 -203 -167 -206 0
-163 -125 -167 -206 0
-163 119 161 200 122 203 125 167 0
-163 119 161 200 122 203 125 206 0
-163 119 161 200 122 203 167 206 0
-163 119 161 200 122 125 167 206 0
-163 119 161 200 203 125 167 206 0
-163 119 161 122 203 125 167 206 0
-163 119 200 122 203 125 167 206 0
-163 161 200 122 203 125 167 206 0
-164 -120 -162 -201 -123 0
-164 -120 -162 -201 -204 0
-164 -120 -162 -201 -126 0
-164 -120 -162 -201 -168 0
-164 -120 -162 -201 -207 0
-164 -120 -162 -123 -204 0
-164 -120 -162 -123 -126 0
-164 -120 -162 -123 -168 0
-164 -120 -162 -123 -207 0
-164 -120 -162 -204 -126 0
-164 -120 -162 -204 -168 0
-164 -120 -162 -204 -207 0
-164 -120 -162 -126 -168 0
-164 -120 -162 -126 -207 0
-164 -120 -162 -168 -207 0
-164 -120 -201 -123 -204 0
-164 -120 -201 -123 -126 0
-164 -120 -201 -123 -168 0
-164 -120 -201 -123 -207 0
-164 -120 -201 -204 -126 0
-164 -120 -201 -204 -168 0
-164 -120 -201 -204 -207 0
-164 -120 -201 -126 -168 0
-164 -120 -201 -126 -207 0
-164 -120 -201 -168 -207 0
-164 -120 -123 -204 -126 0
-164 -120 -123 -204 -168 0
-164 -120 -123 -204 -207 0
-164 -120 -123 -126 -168 0
-164 -120 -123 -126 -207 0
-164 -120 -123 -168 -207 0
-164 -120 -204 -126 -168 0
-164 -120 -204 -126 -207 0
-164 -120 -204 -168 -207 0
-164 -120 -126 -168 -207 0
-164 -162 -201 -123 -204 0
-164 -162 -201 -123 -126 0
-164 -162 -201 -123 -168 0
-164 -162 -201 -123 -207 0
-164 -162 -201 -204 -126 0
-164 -162 -201 -204 -168 0
-164 -162 -201 -204 -207 0
-164 -162 -201 -126 -168 0
-164 -162 -201 -126 -207 0
-164 -162 -201 -168 -207 0
-164 -162 -123 -204 -126 0
-164 -162 -123 -204 -168 0
-164 -162 -123 -204 -207 0
-164 -162 -123 -126 -168 0
-164 -162 -123 -126 -207 0
-164 -162 -123 -168 -207 0
-164 -162 -204 -126 -168 0
-164 -162 -204 -126 -207 0
-164 -162 -204 -168 -207 0
-164 -162 -126 -168 -207 0
-164 -201 -123 -204 -126 0
-164 -201 -123 -204 -168 0
-164 -201 -123 -204 -207 0
-164 -201 -123 -126 -168 0
-164 -201 -123 -126 -207 0
-164 -201 -123 -168 -207 0
-164 -201 -204 -126 -168 0
-164 -201 -204 -126 -207 0
-164 -201 -204 -168 -207 0
-164 -201 -126 -168 -207 0
-164 -123 -204 -126 -168 0
-164 -123 -204 -126 -207 0
-164 -123 -204 -168 -207 0
-164 -123 -126 -168 -207 0
-164 -204 -126 -168 -207 0
-164 120 162 201 123 204 126 0
-164 120 162 201 123 204 168 0
-164 120 162 201 123 204 207 0
-164 120 162 201 123 126 168 0
-164 120 162 201 123 126 207 0
-164 120 162 201 123 168 207 0
-164 120 162 201 204 126 168 0
-164 120 162 201 204 126 207 0
-164 120 162 201 204 168 207 0
-164 120 162 201 126 168 207 0
-164 120 162 123 204 126 168 0
-164 120 162 123 204 126 207 0
-164 120 162 123 204 168 207 0
-164 120 162 123 126 168 207 0
-164 120 162 204 126 168 207 0
-164 120 201 123 204 126 168 0
-164 120 201 123 204 126 207 0
-164 120 201 123 204 168 207 0
-164 120 201 123 126 168 207 0
-164 120 201 204 126 168 207 0
-164 120 123 204 126 168 207 0
-164 162 201 123 204 126 168 0
-164 162 201 123 204 126 207 0
-164 162 201 123 204 168 207 0
-164 162 201 123 126 168 207 0
-164 162 201 204 126 168 207 0
-164 162 123 204 126 168 207 0
-164 201 123 204 126 168 207 0
-165 -118 -160 -199 -121 -202 0
-165 -118 -160 -199 -121 -124 0
-165 -118 -160 -199 -121 -166 0
-165 -118 -160 -199 -121 -205 0
-165 -118 -160 -199 -202 -124 0
-165 -118 -160 -199 -202 -166 0
-165 -118 -160 -199 -202 -205 0
-165 -118 -160 -199 -124 -166 0
-165 -118 -160 -199 -124 -205 0
-165 -118 -160 -199 -166 -205 0
-165 -118 -160 -121 -202 -124 0
-165 -118 -160 -121 -202 -166 0
-165 -118 -160 -121 -202 -205 0
-165 -118 -160 -121 -124 -166 0
-165 -118 -160 -121 -124 -205 0
-165 -118 -160 -121 -166 -205 0
-165 -118 -160 -202 -124 -166 0
-165 -118 -160 -202 -124 -205 0
-165 -118 -160 -202 -166 -205 0
-165 -118 -160 -124 -166 -205 0
-165 -118 -199 -121 -202 -124 0
-165 -118 -199 -121 -202 -166 0
-165 -118 -199 -121 -202 -205 0
-165 -118 -199 -121 -124 -166 0
-165 -118 -199 -121 -124 -205 0
-165 -118 -199 -121 -166 -205 0
-165 -118 -199 -202 -124 -166 0
-165 -118 -199 -202 -124 -205 0
-165 -118 -199 -202 -166 -205 0
-165 -118 -199 -124 -166 -205 0
-165 -118 -121 -202 -124 -166 0
-165 -118 -121 -202 -124 -205 0
-165 -118 -121 -202 -166 -205 0
-165 -118 -121 -124 -166 -205 0
-165 -118 -202 -124 -166 -205 0
-165 -160 -199 -121 -202 -124 0
-165 -160 -199 -121 -202 -166 0
-165 -160 -199 -121 -202 -205 0
-165 -160 -199 -121 -124 -166 0
-165 -160 -199 -121 -124 -205 0
-165 -160 -199 -121 -166 -205 0
-165 -160 -199 -202 -124 -166 0
-165 -160 -199 -202 -124 -205 0
-165 -160 -199 -202 -166 -205 0
-165 -160 -199 -124 -166 -205 0
-165 -160 -121 -202 -124 -166 0
-165 -160 -121 -202 -124 -205 0
-165 -160 -121 -202 -166 -205 0
-165 -160 -121 -124 -166 -205 0
-165 -160 -202 -124 -166 -205 0
-165 -199 -121 -202 -124 -166 0
-165 -199 -121 -202 -124 -205 0
-165 -199 -121 -202 -166 -205 0
-165 -199 -121 -124 -166 -205 0
-165 -199 -202 -124 -166 -205 0
-165 -121 -202 -124 -166 -205 0
-165 118 160 199 121 202 0
-165 118 160 199 121 124 0
-165 118 160 199 121 166 0
-165 118 160 199 121 205 0
-165 118 160 199 202 124 0
-165 118 160 199 202 166 0
-165 118 160 199 202 205 0
-165 118 160 199 124 166 0
-165 118 160 199 124 205 0
-165 118 160 199 166 205 0
-165 118 160 121 202 124 0
-165 118 160 121 202 166 0
-165 118 160 121 202 205 0
-165 118 160 121 124 166 0
-165 118 160 121 124 205 0
-165 118 160 121 166 205 0
-165 118 160 202 124 166 0
-165 118 160 202 124 205 0
-165 118 160 202 166 205 0
-165 118 160 124 166 205 0
-165 118 199 121 202 124 0
-165 118 199 121 202 166 0
-165 118 199 121 202 205 0
-165 118 199 121 124 166 0
-165 118 199 121 124 205 0
-165 118 199 121 166 205 0
-165 118 199 202 124 166 0
-165 118 199 202 124 205 0
-165 118 199 202 166 205 0
-165 118 199 124 166 205 0
-165 118 121 202 124 166 0
-165 118 121 202 124 205 0
-165 118 121 202 166 205 0
-165 118 121 124 166 205 0
-165 118 202 124 166 205 0
-165 160 199 121 202 124 0
-165 160 199 121 202 166 0
-165 160 199 121 202 205 0
-165 160 199 121 124 166 0
-165 160 199 121 124 205 0
-165 160 199 121 166 205 0
-165 160 199 202 124 166 0
-165 160 199 202 124 205 0
-165 160 199 202 166 205 0
-165 160 199 124 166 205 0
-165 160 121 202 124 166 0
-165 160 121 202 124 205 0
-165 160 121 202 166 205 0
-165 160 121 124 166 205 0
-165 160 202 124 166 205 0
-165 199 121 202 124 166 0
-165 199 121 202 124 205 0
-165 199 121 202 166 205 0
-165 199 121 124 166 205 0
-165 199 202 124 166 205 0
-165 121 202 124 166 205 0
-166 -167 0
-166 -168 0
-167 -168 0
-166 -122 -164 -203 0
-166 -122 -164 -125 0
-166 -122 -164 -206 0
-166 -122 -164 -128 0
-166 -122 -164 -170 0
-166 -122 -164 -209 0
-166 -122 -203 -125 0
-166 -122 -203 -206 0
-166 -122 -203 -128 0
-166 -122 -203 -170 0
-166 -122 -203 -209 0
-166 -122 -125 -206 0
-166 -122 -125 -128 0
-166 -122 -125 -170 0
-166 -122 -125 -209 0
-166 -122 -206 -128 0
-166 -122 -206 -170 0
-166 -122 -206 -209 0
-166 -122 -128 -170 0
-166 -122 -128 -209 0
-166 -122 -170 -209 0
-166 -164 -203 -125 0
-166 -164 -203 -206 0
-166 -164 -203 -128 0
-166 -164 -203 -170 0
-166 -164 -203 -209 0
-166 -164 -125 -206 0
-166 -164 -125 -128 0
-166 -164 -125 -170 0
-166 -164 -125 -209 0
-166 -164 -206 -128 0
-166 -164 -206 -170 0
-166 -164 -206 -209 0
-166 -164 -128 -170 0
-166 -164 -128 -209 0
-166 -164 -170 -209 0
-166 -203 -125 -206 0
-166 -203 -125 -128 0
-166 -203 -125 -170 0
-166 -203 -125 -209 0
-166 -203 -206 -128 0
-166 -203 -206 -170 0
-166 -203 -206 -209 0
-166 -203 -128 -170 0
-166 -203 -128 -209 0
-166 -203 -170 -209 0
-166 -125 -206 -128 0
-166 -125 -206 -170 0
-166 -125 -206 -209 0
-166 -125 -128 -170 0
-166 -125 -128 -209 0
-166 -125 -170 -209 0
-166 -206 -128 -170 0
-166 -206 -128 -209 0
-166 -206 -170 -209 0
-166 -128 -170 -209 0
-166 122 164 203 125 206 128 170 0
-166 122 164 203 125 206 128 209 0
-166 122 164 203 125 206 170 209 0
-166 122 164 203 125 128 170 209 0
-166 122 164 203 206 128 170 209 0
-166 122 164 125 206 128 170 209 0
-166 122 203 125 206 128 170 209 0
-166 164 203 125 206 128 170 209 0
-167 -123 -165 -204 -126 0
-167 -123 -165 -204 -207 0
-167 -123 -165 -204 -129 0
-167 -123 -165 -204 -171 0
-167 -123 -165 -204 -210 0
-167 -123 -165 -126 -207 0
-167 -123 -165 -126 -129 0
-167 -123 -165 -126 -171 0
-167 -123 -165 -126 -210 0
-167 -123 -165 -207 -129 0
-167 -123 -165 -207 -171 0
-167 -123 -165 -207 -210 0
-167 -123 -165 -129 -171 0
-167 -123 -165 -129 -210 0
-167 -123 -165 -171 -210 0
-167 -123 -204 -126 -207 0
-167 -123 -204 -126 -129 0
-167 -123 -204 -126 -171 0
-167 -123 -204 -126 -210 0
-167 -123 -204 -207 -129 0
-167 -123 -204 -207 -171 0
-167 -123 -204 -207 -210 0
-167 -123 -204 -129 -171 0
-167 -123 -204 -129 -210 0
-167 -123 -204 -171 -210 0
-167 -123 -126 -207 -129 0
-167 -123 -126 -207 -171 0
-167 -123 -126 -207 -210 0
-167 -123 -126 -129 -171 0
-167 -123 -126 -129 -210 0
-167 -123 -126 -171 -210 0
-167 -123 -207 -129 -171 0
-167 -123 -207 -129 -210 0
-167 -123 -207 -171 -210 0
-167 -123 -129 -171 -210 0
-167 -165 -204 -126 -207 0
-167 -165 -204 -126 -129 0
-167 -165 -204 -126 -171 0
-167 -165 -204 -126 -210 0
-167 -165 -204 -207 -129 0
-167 -165 -204 -207 -171 0
-167 -165 -204 -207 -210 0
-167 -165 -204 -129 -171 0
-167 -165 -204 -129 -210 0
-167 -165 -204 -171 -210 0
-167 -165 -126 -207 -129 0
-167 -165 -126 -207 -171 0
-167 -165 -126 -207 -210 0
-167 -165 -126 -129 -171 0
-167 -165 -126 -129 -210 0
-167 -165 -126 -171 -210 0
-167 -165 -207 -129 -171 0
-167 -165 -207 -129 -210 0
-167 -165 -207 -171 -210 0
-167 -165 -129 -171 -210 0
-167 -204 -126 -207 -129 0
-167 -204 -126 -207 -171 0
-167 -204 -126 -207 -210 0
-167 -204 -126 -129 -171 0
-167 -204 -126 -129 -210 0
-167 -204 -126 -171 -210 0
-167 -204 -207 -129 -171 0
-167 -204 -207 -129 -210 0
-167 -204 -207 -171 -210 0
-167 -204 -129 -171 -210 0
-167 -126 -207 -129 -171 0
-167 -126 -207 -129 -210 0
-167 -126 -207 -171 -210 0
-167 -126 -129 -171 -210 0
-167 -207 -129 -171 -210 0
-167 123 165 204 126 207 129 0
-167 123 165 204 126 207 171 0
-167 123 165 204 126 207 210 0
-167 123 165 204 126 129 171 0
-167 123 165 204 126 129 210 0
-167 123 165 204 126 171 210 0
-167 123 165 204 207 129 171 0
-167 123 165 204 207 129 210 0
-167 123 165 204 207 171 210 0
-167 123 165 204 129 171 210 0
-167 123 165 126 207 129 171 0
-167 123 165 126 207 129 210 0
-167 123 165 126 207 171 210 0
-167 123 165 126 129 171 210 0
-167 123 165 207 129 171 210 0
-167 123 204 126 207 129 171 0
-167 123 204 126 207 129 210 0
-167 123 204 126 207 171 210 0
-167 123 204 126 129 171 210 0
-167 123 204 207 129 171 210 0
-167 123 126 207 129 171 210 0
-167 165 204 126 207 129 171 0
-167 165 204 126 207 129 210 0
-167 165 204 126 207 171 210 0
-167 165 204 126 129 171 210 0
-167 165 204 207 129 171 210 0
-167 165 126 207 129 171 210 0
-167 204 126 207 129 171 210 0
-168 -121 -163 -202 -124 -205 0
-168 -121 -163 -202 -124 -127 0
-168 -121 -163 -202 -124 -169 0
-168 -121 -163 -202 -124 -208 0
-168 -121 -163 -202 -205 -127 0
-168 -121 -163 -202 -205 -169 0
-168 -121 -163 -202 -205 -208 0
-168 -121 -163 -202 -127 -169 0
-168 -121 -163 -202 -127 -208 0
-168 -121 -163 -202 -169 -208 0
-168 -121 -163 -124 -205 -127 0
-168 -121 -163 -124 -205 -169 0
-168 -121 -163 -124 -205 -208 0
-168 -121 -163 -124 -127 -169 0
-168 -121 -163 -124 -127 -208 0
-168 -121 -163 -124 -169 -208 0
-168 -121 -163 -205 -127 -169 0
-168 -121 -163 -205 -127 -208 0
-168 -121 -163 -205 -169 -208 0
-168 -121 -163 -127 -169 -208 0
-168 -121 -202 -124 -205 -127 0
-168 -121 -202 -124 -205 -169 0
-168 -121 -202 -124 -205 -208 0
-168 -121 -202 -124 -127 -169 0
-168 -121 -202 -124 -127 -208 0
-168 -121 -202 -124 -169 -208 0
-168 -121 -202 -205 -127 -169 0
-168 -121 -202 -205 -127 -208 0
-168 -121 -202 -205 -169 -208 0
-168 -121 -202 -127 -169 -208 0
-168 -121 -124 -205 -127 -169 0
-168 -121 -124 -205 -127 -208 0
-168 -121 -124 -205 -169 -208 0
-168 -121 -124 -127 -169 -208 0
-168 -121 -205 -127 -169 -208 0
-168 -163 -202 -124 -205 -127 0
-168 -163 -202 -124 -205 -169 0
-168 -163 -202 -124 -205 -208 0
-168 -163 -202 -124 -127 -169 0
-168 -163 -202 -124 -127 -208 0
-168 -163 -202 -124 -169 -208 0
-168 -163 -202 -205 -127 -169 0
-168 -163 -202 -205 -127 -208 0
-168 -163 -202 -205 -169 -208 0
-168 -163 -202 -127 -169 -208 0
-168 -163 -124 -205 -127 -169 0
-168 -163 -124 -205 -127 -208 0
-168 -163 -124 -205 -169 -208 0
-168 -163 -124 -127 -169 -208 0
-168 -163 -205 -127 -169 -208 0
-168 -202 -124 -205 -127 -169 0
-168 -202 -124 -205 -127 -208 0
-168 -202 -124 -205 -169 -208 0
-168 -202 -124 -127 -169 -208 0
-168 -202 -205 -127 -169 -208 0
-168 -124 -205 -127 -169 -208 0
-168 121 163 202 124 205 0
-168 121 163 202 124 127 0
-168 121 163 202 124 169 0
-168 121 163 202 124 208 0
-168 121 163 202 205 127 0
-168 121 163 202 205 169 0
-168 121 163 202 205 208 0
-168 121 163 202 127 169 0
-168 121 163 202 127 208 0
-168 121 163 202 169 208 0
-168 121 163 124 205 127 0
-168 121 163 124 205 169 0
-168 121 163 124 205 208 0
-168 121 163 124 127 169 0
-168 121 163 124 127 208 0
-168 121 163 124 169 208 0
-168 121 163 205 127 169 0
-168 121 163 205 127 208 0
-168 121 163 205 169 208 0
-168 121 163 127 169 208 0
-168 121 202 124 205 127 0
-168 121 202 124 205 169 0
-168 121 202 124 205 208 0
-168 121 202 124 127 169 0
-168 121 202 124 127 208 0
-168 121 202 124 169 208 0
-168 121 202 205 127 169 0
-168 121 202 205 127 208 0
-168 121 202 205 169 208 0
-168 121 202 127 169 208 0
-168 121 124 205 127 169 0
-168 121 124 205 127 208 0
-168 121 124 205 169 208 0
-168 121 124 127 169 208 0
-168 121 205 127 169 208 0
-168 163 202 124 205 127 0
-168 163 202 124 205 169 0
-168 163 202 124 205 208 0
-168 163 202 124 127 169 0
-168 163 202 124 127 208 0
-168 163 202 124 169 208 0
-168 163 202 205 127 169 0
-168 163 202 205 127 208 0
-168 163 202 205 169 208 0
-168 163 202 127 169 208 0
-168 163 124 205 127 169 0
-168 163 124 205 127 208 0
-168 163 124 205 169 208 0
-168 163 124 127 169 208 0
-168 163 205 127 169 208 0
-168 202 124 205 127 169 0
-168 202 124 205 127 208 0
-168 202 124 205 169 208 0
-168 202 124 127 169 208 0
-168 202 205 127 169 208 0
-168 124 205 127 169 208 0
-169 -170 0
-169 -171 0
-170 -171 0
-169 -125 -167 -206 0
-169 -125 -167 -128 0
-169 -125 -167 -209 0
-169 -125 -167 -131 0
-169 -125 -167 -173 0
-169 -125 -206 -128 0
-169 -125 -206 -209 0
-169 -125 -206 -131 0
-169 -125 -206 -173 0
-169 -125 -128 -209 0
-169 -125 -128 -131 0
-169 -125 -128 -173 0
-169 -125 -209 -131 0
-169 -125 -209 -173 0
-169 -125 -131 -173 0
-169 -167 -206 -128 0
-169 -167 -206 -209 0
-169 -167 -206 -131 0
-169 -167 -206 -173 0
-169 -167 -128 -209 0
-169 -167 -128 -131 0
-169 -167 -128 -173 0
-169 -167 -209 -131 0
-169 -167 -209 -173 0
-169 -167 -131 -173 0
-169 -206 -128 -209 0
-169 -206 -128 -131 0
-169 -206 -128 -173 0
-169 -206 -209 -131 0
-169 -206 -209 -173 0
-169 -206 -131 -173 0
-169 -128 -209 -131 0
-169 -128 -209 -173 0
-169 -128 -131 -173 0
-169 -209 -131 -173 0
-169 125 167 206 128 209 131 0
-169 125 167 206 128 209 173 0
-169 125 167 206 128 131 173 0
-169 125 167 206 209 131 173 0
-169 125 167 128 209 131 173 0
-169 125 206 128 209 131 173 0
-169 167 206 128 209 131 173 0
-170 -126 -168 -207 -129 0
-170 -126 -168 -207 -210 0
-170 -126 -168 -207 -132 0
-170 -126 -168 -207 -174 0
-170 -126 -168 -129 -210 0
-170 -126 -168 -129 -132 0
-170 -126 -168 -129 -174 0
-170 -126 -168 -210 -132 0
-170 -126 -168 -210 -174 0
-170 -126 -168 -132 -174 0
-170 -126 -207 -129 -210 0
-170 -126 -207 -129 -132 0
-170 -126 -207 -129 -174 0
-170 -126 -207 -210 -132 0
-170 -126 -207 -210 -174 0
-170 -126 -207 -132 -174 0
-170 -126 -129 -210 -132 0
-170 -126 -129 -210 -174 0
-170 -126 -129 -132 -174 0
-170 -126 -210 -132 -174 0
-170 -168 -207 -129 -210 0
-170 -168 -207 -129 -132 0
-170 -168 -207 -129 -174 0
-170 -168 -207 -210 -132 0
-170 -168 -207 -210 -174 0
-170 -168 -207 -132 -174 0
-170 -168 -129 -210 -132 0
-170 -168 -129 -210 -174 0
-170 -168 -129 -132 -174 0
-170 -168 -210 -132 -174 0
-170 -207 -129 -210 -132 0
-170 -207 -129 -210 -174 0
-170 -207 -129 -132 -174 0
-170 -207 -210 -132 -174 0
-170 -129 -210 -132 -174 0
-170 126 168 207 129 210 0
-170 126 168 207 129 132 0
-170 126 168 207 129 174 0
-170 126 168 207 210 132 0
-170 126 168 207 210 174 0
-170 126 168 207 132 174 0
-170 126 168 129 210 132 0
-170 126 168 129 210 174 0
-170 126 168 129 132 174 0
-170 126 168 210 132 174 0
-170 126 207 129 210 132 0
-170 126 207 129 210 174 0
-170 126 207 129 132 174 0
-170 126 207 210 132 174 0
-170 126 129 210 132 174 0
-170 168 207 129 210 132 0
-170 168 207 129 210 174 0
-170 168 207 129 132 174 0
-170 168 207 210 132 174 0
-170 168 129 210 132 174 0
-170 207 129 210 132 174 0
-171 -124 -166 -205 -127 -208 0
-171 -124 -166 -205 -127 -130 0
-171 -124 -166 -205 -127 -172 0
-171 -124 -166 -205 -208 -130 0
-171 -124 -166 -205 -208 -172 0
-171 -124 -166 -205 -130 -172 0
-171 -124 -166 -127 -208 -130 0
-171 -124 -166 -127 -208 -172 0
-171 -124 -166 -127 -130 -172 0
-171 -124 -166 -208 -130 -172 0
-171 -124 -205 -127 -208 -130 0
-171 -124 -205 -127 -208 -172 0
-171 -124 -205 -127 -130 -172 0
-171 -124 -205 -208 -130 -172 0
-171 -124 -127 -208 -130 -172 0
-171 -166 -205 -127 -208 -130 0
-171 -166 -205 -127 -208 -172 0
-171 -166 -205 -127 -130 -172 0
-171 -166 -205 -208 -130 -172 0
-171 -166 -127 -208 -130 -172 0
-171 -205 -127 -208 -130 -172 0
-171 124 166 205 127 0
-171 124 166 205 208 0
-171 124 166 205 130 0
-171 124 166 205 172 0
-171 124 166 127 208 0
-171 124 166 127 130 0
-171 124 166 127 172 0
-171 124 166 208 130 0
-171 124 166 208 172 0
-171 124 166 130 172 0
-171 124 205 127 208 0
-171 124 205 127 130 0
-171 124 205 127 172 0
-171 124 205 208 130 0
-171 124 205 208 172 0
-171 124 205 130 172 0
-171 124 127 208 130 0
-171 124 127 208 172 0
-171 124 127 130 172 0
-171 124 208 130 172 0
-171 166 205 127 208 0
-171 166 205 127 130 0
-171 166 205 127 172 0
-171 166 205 208 130 0
-171 166 205 208 172 0
-171 166 205 130 172 0
-171 166 127 208 130 0
-171 166 127 208 172 0
-171 166 127 130 172 0
-171 166 208 130 172 0
-171 205 127 208 130 0
-171 205 127 208 172 0
-171 205 127 130 172 0
-171 205 208 130 172 0
-171 127 208 130 172 0
-172 -173 0
-172 -174 0
-173 -174 0
-172 -128 -170 -209 0
-172 -128 -170 -131 0
-172 -128 -170 -134 0
-172 -128 -209 -131 0
-172 -128 -209 -134 0
-172 -128 -131 -134 0
-172 -170 -209 -131 0
-172 -170 -209 -134 0
-172 -170 -131 -134 0
-172 -209 -131 -134 0
-172 128 170 209 131 0
-172 128 170 209 134 0
-172 128 170 131 134 0
-172 128 209 131 134 0
-172 170 209 131 134 0
-173 -129 -171 -210 -132 0
-173 -129 -171 -210 -135 0
-173 -129 -171 -132 -135 0
-173 -129 -210 -132 -135 0
-173 -171 -210 -132 -135 0
-173 129 171 210 0
-173 129 171 132 0
-173 129 171 135 0
-173 129 210 132 0
-173 129 210 135 0
-173 129 132 135 0
-173 171 210 132 0
-173 171 210 135 0
-173 171 132 135 0
-173 210 132 135 0
-174 -127 -169 -208 -130 -133 0
-174 127 169 0
-174 127 208 0
-174 127 130 0
-174 127 133 0
-174 169 208 0
-174 169 130 0
-174 169 133 0
-174 208 130 0
-174 208 133 0
-174 130 133 0
-175 -176 0
-175 -177 0
-176 -177 0
-178 -179 0
-178 -180 0
-179 -180 0
-178 -137 -176 -212 0
-178 -137 -176 -140 0
-178 -137 -176 -215 0
-178 -137 -176 -143 0
-178 -137 -176 -182 0
-178 -137 -176 -218 0
-178 -137 -212 -140 0
-178 -137 -212 -215 0
-178 -137 -212 -143 0
-178 -137 -212 -182 0
-178 -137 -212 -218 0
-178 -137 -140 -215 0
-178 -137 -140 -143 0
-178 -137 -140 -182 0
-178 -137 -140 -218 0
-178 -137 -215 -143 0
-178 -137 -215 -182 0
-178 -137 -215 -218 0
-178 -137 -143 -182 0
-178 -137 -143 -218 0
-178 -137 -182 -218 0
-178 -176 -212 -140 0
-178 -176 -212 -215 0
-178 -176 -212 -143 0
-178 -176 -212 -182 0
-178 -176 -212 -218 0
-178 -176 -140 -215 0
-178 -176 -140 -143 0
-178 -176 -140 -182 0
-178 -176 -140 -218 0
-178 -176 -215 -143 0
-178 -176 -215 -182 0
-178 -176 -215 -218 0
-178 -176 -143 -182 0
-178 -176 -143 -218 0
-178 -176 -182 -218 0
-178 -212 -140 -215 0
-178 -212 -140 -143 0
-178 -212 -140 -182 0
-178 -212 -140 -218 0
-178 -212 -215 -143 0
-178 -212 -215 -182 0
-178 -212 -215 -218 0
-178 -212 -143 -182 0
-178 -212 -143 -218 0
-178 -212 -182 -218 0
-178 -140 -215 -143 0
-178 -140 -215 -182 0
-178 -140 -215 -218 0
-178 -140 -143 -182 0
-178 -140 -143 -218 0
-178 -140 -182 -218 0
-178 -215 -143 -182 0
-178 -215 -143 -218 0
-178 -215 -182 -218 0
-178 -143 -182 -218 0
-178 137 176 212 140 215 143 182 0
-178 137 176 212 140 215 143 218 0
-178 137 176 212 140 215 182 218 0
-178 137 176 212 140 143 182 218 0
-178 137 176 212 215 143 182 218 0
-178 137 176 140 215 143 182 218 0
-178 137 212 140 215 143 182 218 0
-178 176 212 140 215 143 182 218 0
-179 -138 -177 -213 -141 0
-179 -138 -177 -213 -216 0
-179 -138 -177 -213 -144 0
-179 -138 -177 -213 -183 0
-179 -138 -177 -213 -219 0
-179 -138 -177 -141 -216 0
-179 -138 -177 -141 -144 0
-179 -138 -177 -141 -183 0
-179 -138 -177 -141 -219 0
-179 -138 -177 -216 -144 0
-179 -138 -177 -216 -183 0
-179 -138 -177 -216 -219 0
-179 -138 -177 -144 -183 0
-179 -138 -177 -144 -219 0
-179 -138 -177 -183 -219 0
-179 -138 -213 -141 -216 0
-179 -138 -213 -141 -144 0
-179 -138 -213 -141 -183 0
-179 -138 -213 -141 -219 0
-179 -138 -213 -216 -144 0
-179 -138 -213 -216 -183 0
-179 -138 -213 -216 -219 0
-179 -138 -213 -144 -183 0
-179 -138 -213 -144 -219 0
-179 -138 -213 -183 -219 0
-179 -138 -141 -216 -144 0
-179 -138 -141 -216 -183 0
-179 -138 -141 -216 -219 0
-179 -138 -141 -144 -183 0
-179 -138 -141 -144 -219 0
-179 -138 -141 -183 -219 0
-179 -138 -216 -144 -183 0
-179 -138 -216 -144 -219 0
-179 -138 -216 -183 -219 0
-179 -138 -144 -183 -219 0
-179 -177 -213 -141 -216 0
-179 -177 -213 -141 -144 0
-179 -177 -213 -141 -183 0
-179 -177 -213 -141 -219 0
-179 -177 -213 -216 -144 0
-179 -177 -213 -216 -183 0
-179 -177 -213 -216 -219 0
-179 -177 -213 -144 -183 0
-179 -177 -213 -144 -219 0
-179 -177 -213 -183 -219 0
-179 -177 -141 -216 -144 0
-179 -177 -141 -216 -183 0
-179 -177 -141 -216 -219 0
-179 -177 -141 -144 -183 0
-179 -177 -141 -144 -219 0
-179 -177 -141 -183 -219 0
-179 -177 -216 -144 -183 0
-179 -177 -216 -144 -219 0
-179 -177 -216 -183 -219 0
-179 -177 -144 -183 -219 0
-179 -213 -141 -216 -144 0
-179 -213 -141 -216 -183 0
-179 -213 -141 -216 -219 0
-179 -213 -141 -144 -183 0
-179 -213 -141 -144 -219 0
-179 -213 -141 -183 -219 0
-179 -213 -216 -144 -183 0
-179 -213 -216 -144 -219 0
-179 -213 -216 -183 -219 0
-179 -213 -144 -183 -219 0
-179 -141 -216 -144 -183 0
-179 -141 -216 -144 -219 0
-179 -141 -216 -183 -219 0
-179 -141 -144 -183 -219 0
-179 -216 -144 -183 -219 0
-179 138 177 213 141 216 144 0
-179 138 177 213 141 216 183 0
-179 138 177 213 141 216 219 0
-179 138 177 213 141 144 183 0
-179 138 177 213 141 144 219 0
-179 138 177 213 141 183 219 0
-179 138 177 213 216 144 183 0
-179 138 177 213 216 144 219 0
-179 138 177 213 216 183 219 0
-179 138 177 213 144 183 219 0
-179 138 177 141 216 144 183 0
-179 138 177 141 216 144 219 0
-179 138 177 141 216 183 219 0
-179 138 177 141 144 183 219 0
-179 138 177 216 144 183 219 0
-179 138 213 141 216 144 183 0
-179 138 213 141 216 144 219 0
-179 138 213 141 216 183 219 0
-179 138 213 141 144 183 219 0
-179 138 213 216 144 183 219 0
-179 138 141 216 144 183 219 0
-179 177 213 141 216 144 183 0
-179 177 213 141 216 144 219 0
-179 177 213 141 216 183 219 0
-179 177 213 141 144 183 219 0
-179 177 213 216 144 183 219 0
-179 177 141 216 144 183 219 0
-179 213 141 216 144 183 219 0
-180 -136 -175 -211 -139 -214 0
-180 -136 -175 -211 -139 -142 0
-180 -136 -175 -211 -139 -181 0
-180 -136 -175 -211 -139 -217 0
-180 -136 -175 -211 -214 -142 0
-180 -136 -175 -211 -214 -181 0
-180 -136 -175 -211 -214 -217 0
-180 -136 -175 -211 -142 -181 0
-180 -136 -175 -211 -142 -217 0
-180 -136 -175 -211 -181 -217 0
-180 -136 -175 -139 -214 -142 0
-180 -136 -175 -139 -214 -181 0
-180 -136 -175 -139 -214 -217 0
-180 -136 -175 -139 -142 -181 0
-180 -136 -175 -139 -142 -217 0
-180 -136 -175 -139 -181 -217 0
-180 -136 -175 -214 -142 -181 0
-180 -136 -175 -214 -142 -217 0
-180 -136 -175 -214 -181 -217 0
-180 -136 -175 -142 -181 -217 0
-180 -136 -211 -139 -214 -142 0
-180 -136 -211 -139 -214 -181 0
-180 -136 -211 -139 -214 -217 0
-180 -136 -211 -139 -142 -181 0
-180 -136 -211 -139 -142 -217 0
-180 -136 -211 -139 -181 -217 0
-180 -136 -211 -214 -142 -181 0
-180 -136 -211 -214 -142 -217 0
-180 -136 -211 -214 -181 -217 0
-180 -136 -211 -142 -181 -217 0
-180 -136 -139 -214 -142 -181 0
-180 -136 -139 -214 -142 -217 0
-180 -136 -139 -214 -181 -217 0
-180 -136 -139 -142 -181 -217 0
-180 -136 -214 -142 -181 -217 0
-180 -175 -211 -139 -214 -142 0
-180 -175 -211 -139 -214 -181 0
-180 -175 -211 -139 -214 -217 0
-180 -175 -211 -139 -142 -181 0
-180 -175 -211 -139 -142 -217 0
-180 -175 -211 -139 -181 -217 0
-180 -175 -211 -214 -142 -181 0
-180 -175 -211 -214 -142 -217 0
-180 -175 -211 -214 -181 -217 0
-180 -175 -211 -142 -181 -217 0
-180 -175 -139 -214 -142 -181 0
-180 -175 -139 -214 -142 -217 0
-180 -175 -139 -214 -181 -217 0
-180 -175 -139 -142 -181 -217 0
-180 -175 -214 -142 -181 -217 0
-180 -211 -139 -214 -142 -181 0
-180 -211 -139 -214 -142 -217 0
-180 -211 -139 -214 -181 -217 0
-180 -211 -139 -142 -181 -217 0
-180 -211 -214 -142 -181 -217 0
-180 -139 -214 -142 -181 -217 0
-180 136 175 211 139 214 0
-180 136 175 211 139 142 0
-180 136 175 211 139 181 0
-180 136 175 211 139 217 0
-180 136 175 211 214 142 0
-180 136 175 211 214 181 0
-180 136 175 211 214 217 0
-180 136 175 211 142 181 0
-180 136 175 211 142 217 0
-180 136 175 211 181 217 0
-180 136 175 139 214 142 0
-180 136 175 139 214 181 0
-180 136 175 139 214 217 0
-180 136 175 139 142 181 0
-180 136 175 139 142 217 0
-180 136 175 139 181 217 0
-180 136 175 214 142 181 0
-180 136 175 214 142 217 0
-180 136 175 214 181 217 0
-180 136 175 142 181 217 0
-180 136 211 139 214 142 0
-180 136 211 139 214 181 0
-180 136 211 139 214 217 0
-180 136 211 139 142 181 0
-180 136 211 139 142 217 0
-180 136 211 139 181 217 0
-180 136 211 214 142 181 0
-180 136 211 214 142 217 0
-180 136 211 214 181 217 0
-180 136 211 142 181 217 0
-180 136 139 214 142 181 0
-180 136 139 214 142 217 0
-180 136 139 214 181 217 0
-180 136 139 142 181 217 0
-180 136 214 142 181 217 0
-180 175 211 139 214 142 0
-180 175 211 139 214 181 0
-180 175 211 139 214 217 0
-180 175 211 139 142 181 0
-180 175 211 139 142 217 0
-180 175 211 139 181 217 0
-180 175 211 214 142 181 0
-180 175 211 214 142 217 0
-180 175 211 214 181 217 0
-180 175 211 142 181 217 0
-180 175 139 214 142 181 0
-180 175 139 214 142 217 0
-180 175 139 214 181 217 0
-180 175 139 142 181 217 0
-180 175 214 142 181 217 0
-180 211 139 214 142 181 0
-180 211 139 214 142 217 0
-180 211 139 214 181 217 0
-180 211 139 142 181 217 0
-180 211 214 142 181 217 0
-180 139 214 142 181 217 0
-181 -182 0
-181 -183 0
-182 -183 0
-181 -140 -179 -215 0
-181 -140 -179 -143 0
-181 -140 -179 -218 0
-181 -140 -179 -146 0
-181 -140 -179 -185 0
-181 -140 -179 -221 0
-181 -140 -215 -143 0
-181 -140 -215 -218 0
-181 -140 -215 -146 0
-181 -140 -215 -185 0
-181 -140 -215 -221 0
-181 -140 -143 -218 0
-181 -140 -143 -146 0
-181 -140 -143 -185 0
-181 -140 -143 -221 0
-181 -140 -218 -146 0
-181 -140 -218 -185 0
-181 -140 -218 -221 0
-181 -140 -146 -185 0
-181 -140 -146 -221 0
-181 -140 -185 -221 0
-181 -179 -215 -143 0
-181 -179 -215 -218 0
-181 -179 -215 -146 0
-181 -179 -215 -185 0
-181 -179 -215 -221 0
-181 -179 -143 -218 0
-181 -179 -143 -146 0
-181 -179 -143 -185 0
-181 -179 -143 -221 0
-181 -179 -218 -146 0
-181 -179 -218 -185 0
-181 -179 -218 -221 0
-181 -179 -146 -185 0
-181 -179 -146 -221 0
-181 -179 -185 -221 0
-181 -215 -143 -218 0
-181 -215 -143 -146 0
-181 -215 -143 -185 0
-181 -215 -143 -221 0
-181 -215 -218 -146 0
-181 -215 -218 -185 0
-181 -215 -218 -221 0
-181 -215 -146 -185 0
-181 -215 -146 -221 0
-181 -215 -185 -221 0
-181 -143 -218 -146 0
-181 -143 -218 -185 0
-181 -143 -218 -221 0
-181 -143 -146 -185 0
-181 -143 -146 -221 0
-181 -143 -185 -221 0
-181 -218 -146 -185 0
-181 -218 -146 -221 0
-181 -218 -185 -221 0
-181 -146 -185 -221 0
-181 140 179 215 143 218 146 185 0
-181 140 179 215 143 218 146 221 0
-181 140 179 215 143 218 185 221 0
-181 140 179 215 143 146 185 221 0
-181 140 179 215 218 146 185 221 0
-181 140 179 143 218 146 185 221 0
-181 140 215 143 218 146 185 221 0
-181 179 215 143 218 146 185 221 0
-182 -141 -180 -216 -144 0
-182 -141 -180 -216 -219 0
-182 -141 -180 -216 -147 0
-182 -141 -180 -216 -186 0
-182 -141 -180 -216 -222 0
-182 -141 -180 -144 -219 0
-182 -141 -180 -144 -147 0
-182 -141 -180 -144 -186 0
-182 -141 -180 -144 -222 0
-182 -141 -180 -219 -147 0
-182 -141 -180 -219 -186 0
-182 -141 -180 -219 -222 0
-182 -141 -180 -147 -186 0
-182 -141 -180 -147 -222 0
-182 -141 -180 -186 -222 0
-182 -141 -216 -144 -219 0
-182 -141 -216 -144 -147 0
-182 -141 -216 -144 -186 0
-182 -141 -216 -144 -222 0
-182 -141 -216 -219 -147 0
-182 -141 -216 -219 -186 0
-182 -141 -216 -219 -222 0
-182 -141 -216 -147 -186 0
-182 -141 -216 -147 -222 0
-182 -141 -216 -186 -222 0
-182 -141 -144 -219 -147 0
-182 -141 -144 -219 -186 0
-182 -141 -144 -219 -222 0
-182 -141 -144 -147 -186 0
-182 -141 -144 -147 -222 0
-182 -141 -144 -186 -222 0
-182 -141 -219 -147 -186 0
-182 -141 -219 -147 -222 0
-182 -141 -219 -186 -222 0
-182 -141 -147 -186 -222 0
-182 -180 -216 -144 -219 0
-182 -180 -216 -144 -147 0
-182 -180 -216 -144 -186 0
-182 -180 -216 -144 -222 0
-182 -180 -216 -219 -147 0
-182 -180 -216 -219 -186 0
-182 -180 -216 -219 -222 0
-182 -180 -216 -147 -186 0
-182 -180 -216 -147 -222 0
-182 -180 -216 -186 -222 0
-182 -180 -144 -219 -147 0
-182 -180 -144 -219 -186 0
-182 -180 -144 -219 -222 0
-182 -180 -144 -147 -186 0
-182 -180 -144 -147 -222 0
-182 -180 -144 -186 -222 0
-182 -180 -219 -147 -186 0
-182 -180 -219 -147 -222 0
-182 -180 -219 -186 -222 0
-182 -180 -147 -186 -222 0
-182 -216 -144 -219 -147 0
-182 -216 -144 -219 -186 0
-182 -216 -144 -219 -222 0
-182 -216 -144 -147 -186 0
-182 -216 -144 -147 -222 0
-182 -216 -144 -186 -222 0
-182 -216 -219 -147 -186 0
-182 -216 -219 -147 -222 0
-182 -216 -219 -186 -222 0
-182 -216 -147 -186 -222 0
-182 -144 -219 -147 -186 0
-182 -144 -219 -147 -222 0
-182 -144 -219 -186 -222 0
-182 -144 -147 -186 -222 0
-182 -219 -147 -186 -222 0
-182 141 180 216 144 219 147 0
-182 141 180 216 144 219 186 0
-182 141 180 216 144 219 222 0
-182 141 180 216 144 147 186 0
-182 141 180 216 144 147 222 0
-182 141 180 216 144 186 222 0
-182 141 180 216 219 147 186 0
-182 141 180 216 219 147 222 0
-182 141 180 216 219 186 222 0
-182 141 180 216 147 186 222 0
-182 141 180 144 219 147 186 0
-182 141 180 144 219 147 222 0
-182 141 180 144 219 186 222 0
-182 141 180 144 147 186 222 0
-182 141 180 219 147 186 222 0
-182 141 216 144 219 147 186 0
-182 141 216 144 219 147 222 0
-182 141 216 144 219 186 222 0
-182 141 216 144 147 186 222 0
-182 141 216 219 147 186 222 0
-182 141 144 219 147 186 222 0
-182 180 216 144 219 147 186 0
-182 180 216 144 219 147 222 0
-182 180 216 144 219 186 222 0
-182 180 216 144 147 186 222 0
-182 180 216 219 147 186 222 0
-182 180 144 219 147 186 222 0
-182 216 144 219 147 186 222 0
-183 -139 -178 -214 -142 -217 0
-183 -139 -178 -214 -142 -145 0
-183 -139 -178 -214 -142 -184 0
-183 -139 -178 -214 -142 -220 0
-183 -139 -178 -214 -217 -145 0
-183 -139 -178 -214 -217 -184 0
-183 -139 -178 -214 -217 -220 0
-183 -139 -178 -214 -145 -184 0
-183 -139 -178 -214 -145 -220 0
-183 -139 -178 -214 -184 -220 0
-183 -139 -178 -142 -217 -145 0
-183 -139 -178 -142 -217 -184 0
-183 -139 -178 -142 -217 -220 0
-183 -139 -178 -142 -145 -184 0
-183 -139 -178 -142 -145 -220 0
-183 -139 -178 -142 -184 -220 0
-183 -139 -178 -217 -145 -184 0
-183 -139 -178 -217 -145 -220 0
-183 -139 -178 -217 -184 -220 0
-183 -139 -178 -145 -184 -220 0
-183 -139 -214 -142 -217 -145 0
-183 -139 -214 -142 -217 -184 0
-183 -139 -214 -142 -217 -220 0
-183 -139 -214 -142 -145 -184 0
-183 -139 -214 -142 -145 -220 0
-183 -139 -214 -142 -184 -220 0
-183 -139 -214 -217 -145 -184 0
-183 -139 -214 -217 -145 -220 0
-183 -139 -214 -217 -184 -220 0
-183 -139 -214 -145 -184 -220 0
-183 -139 -142 -217 -145 -184 0
-183 -139 -142 -217 -145 -220 0
-183 -139 -142 -217 -184 -220 0
-183 -139 -142 -145 -184 -220 0
-183 -139 -217 -145 -184 -220 0
-183 -178 -214 -142 -217 -145 0
-183 -178 -214 -142 -217 -184 0
-183 -178 -214 -142 -217 -220 0
-183 -178 -214 -142 -145 -184 0
-183 -178 -214 -142 -145 -220 0
-183 -178 -214 -142 -184 -220 0
-183 -178 -214 -217 -145 -184 0
-183 -178 -214 -217 -145 -220 0
-183 -178 -214 -217 -184 -220 0
-183 -178 -214 -145 -184 -220 0
-183 -178 -142 -217 -145 -184 0
-183 -178 -142 -217 -145 -220 0
-183 -178 -142 -217 -184 -220 0
-183 -178 -142 -145 -184 -220 0
-183 -178 -217 -145 -184 -220 0
-183 -214 -142 -217 -145 -184 0
-183 -214 -142 -217 -145 -220 0
-183 -214 -142 -217 -184 -220 0
-183 -214 -142 -145 -184 -220 0
-183 -214 -217 -145 -184 -220 0
-183 -142 -217 -145 -184 -220 0
-183 139 178 214 142 217 0
-183 139 178 214 142 145 0
-183 139 178 214 142 184 0
-183 139 178 214 142 220 0
-183 139 178 214 217 145 0
-183 139 178 214 217 184 0
-183 139 178 214 217 220 0
-183 139 178 214 145 184 0
-183 139 178 214 145 220 0
-183 139 178 214 184 220 0
-183 139 178 142 217 145 0
-183 139 178 142 217 184 0
-183 139 178 142 217 220 0
-183 139 178 142 145 184 0
-183 139 178 142 145 220 0
-183 139 178 142 184 220 0
-183 139 178 217 145 184 0
-183 139 178 217 145 220 0
-183 139 178 217 184 220 0
-183 139 178 145 184 220 0
-183 139 214 142 217 145 0
-183 139 214 142 217 184 0
-183 139 214 142 217 220 0
-183 139 214 142 145 184 0
-183 139 214 142 145 220 0
-183 139 214 142 184 220 0
-183 139 214 217 145 184 0
-183 139 214 217 145 220 0
-183 139 214 217 184 220 0
-183 139 214 145 184 220 0
-183 139 142 217 145 184 0
-183 139 142 217 145 220 0
-183 139 142 217 184 220 0
-183 139 142 145 184 220 0
-183 139 217 145 184 220 0
-183 178 214 142 217 145 0
-183 178 214 142 217 184 0
-183 178 214 142 217 220 0
-183 178 214 142 145 184 0
-183 178 214 142 145 220 0
-183 178 214 142 184 220 0
-183 178 214 217 145 184 0
-183 178 214 217 145 220 0
-183 178 214 217 184 220 0
-183 178 214 145 184 220 0
-183 178 142 217 145 184 0
-183 178 142 217 145 220 0
-183 178 142 217 184 220 0
-183 178 142 145 184 220 0
-183 178 217 145 184 220 0
-183 214 142 217 145 184 0
-183 214 142 217 145 220 0
-183 214 142 217 184 220 0
-183 214 142 145 184 220 0
-183 214 217 145 184 220 0
-183 142 217 145 184 220 0
-184 -185 0
-184 -186 0
-185 -186 0
-184 -143 -182 -218 0
-184 -143 -182 -146 0
-184 -143 -182 -221 0
-184 -143 -182 -149 0
-184 -143 -182 -188 0
-184 -143 -182 -224 0
-184 -143 -218 -146 0
-184 -143 -218 -221 0
-184 -143 -218 -149 0
-184 -143 -218 -188 0
-184 -143 -218 -224 0
-184 -143 -146 -221 0
-184 -143 -146 -149 0
-184 -143 -146 -188 0
-184 -143 -146 -224 0
-184 -143 -221 -149 0
-184 -143 -221 -188 0
-184 -143 -221 -224 0
-184 -143 -149 -188 0
-184 -143 -149 -224 0
-184 -143 -188 -224 0
-184 -182 -218 -146 0
-184 -182 -218 -221 0
-184 -182 -218 -149 0
-184 -182 -218 -188 0
-184 -182 -218 -224 0
-184 -182 -146 -221 0
-184 -182 -146 -149 0
-184 -182 -146 -188 0
-184 -182 -146 -224 0
-184 -182 -221 -149 0
-184 -182 -221 -188 0
-184 -182 -221 -224 0
-184 -182 -149 -188 0
-184 -182 -149 -224 0
-184 -182 -188 -224 0
-184 -218 -146 -221 0
-184 -218 -146 -149 0
-184 -218 -146 -188 0
-184 -218 -146 -224 0
-184 -218 -221 -149 0
-184 -218 -221 -188 0
-184 -218 -221 -224 0
-184 -218 -149 -188 0
-184 -218 -149 -224 0
-184 -218 -188 -224 0
-184 -146 -221 -149 0
-184 -146 -221 -188 0
-184 -146 -221 -224 0
-184 -146 -149 -188 0
-184 -146 -149 -224 0
-184 -146 -188 -224 0
-184 -221 -149 -188 0
-184 -221 -149 -224 0
-184 -221 -188 -224 0
-184 -149 -188 -224 0
-184 143 182 218 146 221 149 188 0
-184 143 182 218 146 221 149 224 0
-184 143 182 218 146 221 188 224 0
-184 143 182 218 146 149 188 224 0
-184 143 182 218 221 149 188 224 0
-184 143 182 146 221 149 188 224 0
-184 143 218 146 221 149 188 224 0
-184 182 218 146 221 149 188 224 0
-185 -144 -183 -219 -147 0
-185 -144 -183 -219 -222 0
-185 -144 -183 -219 -150 0
-185 -144 -183 -219 -189 0
-185 -144 -183 -219 -225 0
-185 -144 -183 -147 -222 0
-185 -144 -183 -147 -150 0
-185 -144 -183 -147 -189 0
-185 -144 -183 -147 -225 0
-185 -144 -183 -222 -150 0
-185 -144 -183 -222 -189 0
-185 -144 -183 -222 -225 0
-185 -144 -183 -150 -189 0
-185 -144 -183 -150 -225 0
-185 -144 -183 -189 -225 0
-185 -144 -219 -147 -222 0
-185 -144 -219 -147 -150 0
-185 -144 -219 -147 -189 0
-185 -144 -219 -147 -225 0
-185 -144 -219 -222 -150 0
-185 -144 -219 -222 -189 0
-185 -144 -219 -222 -225 0
-185 -144 -219 -150 -189 0
-185 -144 -219 -150 -225 0
-185 -144 -219 -189 -225 0
-185 -144 -147 -222 -150 0
-185 -144 -147 -222 -189 0
-185 -144 -147 -222 -225 0
-185 -144 -147 -150 -189 0
-185 -144 -147 -150 -225 0
-185 -144 -147 -189 -225 0
-185 -144 -222 -150 -189 0
-185 -144 -222 -150 -225 0
-185 -144 -222 -189 -225 0
-185 -144 -150 -189 -225 0
-185 -183 -219 -147 -222 0
-185 -183 -219 -147 -150 0
-185 -183 -219 -147 -189 0
-185 -183 -219 -147 -225 0
-185 -183 -219 -222 -150 0
-185 -183 -219 -222 -189 0
-185 -183 -219 -222 -225 0
-185 -183 -219 -150 -189 0
-185 -183 -219 -150 -225 0
-185 -183 -219 -189 -225 0
-185 -183 -147 -222 -150 0
-185 -183 -147 -222 -189 0
-185 -183 -147 -222 -225 0
-185 -183 -147 -150 -189 0
-185 -183 -147 -150 -225 0
-185 -183 -147 -189 -225 0
-185 -183 -222 -150 -189 0
-185 -183 -222 -150 -225 0
-185 -183 -222 -189 -225 0
-185 -183 -150 -189 -225 0
-185 -219 -147 -222 -150 0
-185 -219 -147 -222 -189 0
-185 -219 -147 -222 -225 0
-185 -219 -147 -150 -189 0
-185 -219 -147 -150 -225 0
-185 -219 -147 -189 -225 0
-185 -219 -222 -150 -189 0
-185 -219 -222 -150 -225 0
-185 -219 -222 -189 -225 0
-185 -219 -150 -189 -225 0
-185 -147 -222 -150 -189 0
-185 -147 -222 -150 -225 0
-185 -147 -222 -189 -225 0
-185 -147 -150 -189 -225 0
-185 -222 -150 -189 -225 0
-185 144 183 219 147 222 150 0
-185 144 183 219 147 222 189 0
-185 144 183 219 147 222 225 0
-185 144 183 219 147 150 189 0
-185 144 183 219 147 150 225 0
-185 144 183 219 147 189 225 0
-185 144 183 219 222 150 189 0
-185 144 183 219 222 150 225 0
-185 144 183 219 222 189 225 0
-185 144 183 219 150 189 225 0
-185 144 183 147 222 150 189 0
-185 144 183 147 222 150 225 0
-185 144 183 147 222 189 225 0
-185 144 183 147 150 189 225 0
-185 144 183 222 150 189 225 0
-185 144 219 147 222 150 189 0
-185 144 219 147 222 150 225 0
-185 144 219 147 222 189 225 0
-185 144 219 147 150 189 225 0
-185 144 219 222 150 189 225 0
-185 144 147 222 150 189 225 0
-185 183 219 147 222 150 189 0
-185 183 219 147 222 150 225 0
-185 183 219 147 222 189 225 0
-185 183 219 147 150 189 225 0
-185 183 219 222 150 189 225 0
-185 183 147 222 150 189 225 0
-185 219 147 222 150 189 225 0
-186 -142 -181 -217 -145 -220 0
-186 -142 -181 -217 -145 -148 0
-186 -142 -181 -217 -145 -187 0
-186 -142 -181 -217 -145 -223 0
-186 -142 -181 -217 -220 -148 0
-186 -142 -181 -217 -220 -187 0
-186 -142 -181 -217 -220 -223 0
-186 -142 -181 -217 -148 -187 0
-186 -142 -181 -217 -148 -223 0
-186 -142 -181 -217 -187 -223 0
-186 -142 -181 -145 -220 -148 0
-186 -142 -181 -145 -220 -187 0
-186 -142 -181 -145 -220 -223 0
-186 -142 -181 -145 -148 -187 0
-186 -142 -181 -145 -148 -223 0
-186 -142 -181 -145 -187 -223 0
-186 -142 -181 -220 -148 -187 0
-186 -142 -181 -220 -148 -223 0
-186 -142 -181 -220 -187 -223 0
-186 -142 -181 -148 -187 -223 0
-186 -142 -217 -145 -220 -148 0
-186 -142 -217 -145 -220 -187 0
-186 -142 -217 -145 -220 -223 0
-186 -142 -217 -145 -148 -187 0
-186 -142 -217 -145 -148 -223 0
-186 -142 -217 -145 -187 -223 0
-186 -142 -217 -220 -148 -187 0
-186 -142 -217 -220 -148 -223 0
-186 -142 -217 -220 -187 -223 0
-186 -142 -217 -148 -187 -223 0
-186 -142 -145 -220 -148 -187 0
-186 -142 -145 -220 -148 -223 0
-186 -142 -145 -220 -187 -223 0
-186 -142 -145 -148 -187 -223 0
-186 -142 -220 -148 -187 -223 0
-186 -181 -217 -145 -220 -148 0
-186 -181 -217 -145 -220 -187 0
-186 -181 -217 -145 -220 -223 0
-186 -181 -217 -145 -148 -187 0
-186 -181 -217 -145 -148 -223 0
-186 -181 -217 -145 -187 -223 0
-186 -181 -217 -220 -148 -187 0
-186 -181 -217 -220 -148 -223 0
-186 -181 -217 -220 -187 -223 0
-186 -181 -217 -148 -187 -223 0
-186 -181 -145 -220 -148 -187 0
-186 -181 -145 -220 -148 -223 0
-186 -181 -145 -220 -187 -223 0
-186 -181 -145 -148 -187 -223 0
-186 -181 -220 -148 -187 -223 0
-186 -217 -145 -220 -148 -187 0
-186 -217 -145 -220 -148 -223 0
-186 -217 -145 -220 -187 -223 0
-186 -217 -145 -148 -187 -223 0
-186 -217 -220 -148 -187 -223 0
-186 -145 -220 -148 -187 -223 0
-186 142 181 217 145 220 0
-186 142 181 217 145 148 0
-186 142 181 217 145 187 0
-186 142 181 217 145 223 0
-186 142 181 217 220 148 0
-186 142 181 217 220 187 0
-186 142 181 217 220 223 0
-186 142 181 217 148 187 0
-186 142 181 217 148 223 0
-186 142 181 217 187 223 0
-186 142 181 145 220 148 0
-186 142 181 145 220 187 0
-186 142 181 145 220 223 0
-186 142 181 145 148 187 0
-186 142 181 145 148 223 0
-186 142 181 145 187 223 0
-186 142 181 220 148 187 0
-186 142 181 220 148 223 0
-186 142 181 220 187 223 0
-186 142 181 148 187 223 0
-186 142 217 145 220 148 0
-186 142 217 145 220 187 0
-186 142 217 145 220 223 0
-186 142 217 145 148 187 0
-186 142 217 145 148 223 0
-186 142 217 145 187 223 0
-186 142 217 220 148 187 0
-186 142 217 220 148 223 0
-186 142 217 220 187 223 0
-186 142 217 148 187 223 0
-186 142 145 220 148 187 0
-186 142 145 220 148 223 0
-186 142 145 220 187 223 0
-186 142 145 148 187 223 0
-186 142 220 148 187 223 0
-186 181 217 145 220 148 0
-186 181 217 145 220 187 0
-186 181 217 145 220 223 0
-186 181 217 145 148 187 0
-186 181 217 145 148 223 0
-186 181 217 145 187 223 0
-186 181 217 220 148 187 0
-186 181 217 220 148 223 0
-186 181 217 220 187 223 0
-186 181 217 148 187 223 0
-186 181 145 220 148 187 0
-186 181 145 220 148 223 0
-186 181 145 220 187 223 0
-186 181 145 148 187 223 0
-186 181 220 148 187 223 0
-186 217 145 220 148 187 0
-186 217 145 220 148 223 0
-186 217 145 220 187 223 0
-186 217 145 148 187 223 0
-186 217 220 148 187 223 0
-186 145 220 148 187 223 0
-187 -188 0
-187 -189 0
-188 -189 0
-187 -146 -185 -221 0
-187 -146 -185 -149 0
-187 -146 -185 -224 0
-187 -146 -185 -152 0
-187 -146 -185 -191 0
-187 -146 -185 -227 0
-187 -146 -221 -149 0
-187 -146 -221 -224 0
-187 -146 -221 -152 0
-187 -146 -221 -191 0
-187 -146 -221 -227 0
-187 -146 -149 -224 0
-187 -146 -149 -152 0
-187 -146 -149 -191 0
-187 -146 -149 -227 0
-187 -146 -224 -152 0
-187 -146 -224 -191 0
-187 -146 -224 -227 0
-187 -146 -152 -191 0
-187 -146 -152 -227 0
-187 -146 -191 -227 0
-187 -185 -221 -149 0
-187 -185 -221 -224 0
-187 -185 -221 -152 0
-187 -185 -221 -191 0
-187 -185 -221 -227 0
-187 -185 -149 -224 0
-187 -185 -149 -152 0
-187 -185 -149 -191 0
-187 -185 -149 -227 0
-187 -185 -224 -152 0
-187 -185 -224 -191 0
-187 -185 -224 -227 0
-187 -185 -152 -191 0
-187 -185 -152 -227 0
-187 -185 -191 -227 0
-187 -221 -149 -224 0
-187 -221 -149 -152 0
-187 -221 -149 -191 0
-187 -221 -149 -227 0
-187 -221 -224 -152 0
-187 -221 -224 -191 0
-187 -221 -224 -227 0
-187 -221 -152 -191 0
-187 -221 -152 -227 0
-187 -221 -191 -227 0
-187 -149 -224 -152 0
-187 -149 -224 -191 0
-187 -149 -224 -227 0
-187 -149 -152 -191 0
-187 -149 -152 -227 0
-187 -149 -191 -227 0
-187 -224 -152 -191 0
-187 -224 -152 -227 0
-187 -224 -191 -227 0
-187 -152 -191 -227 0
-187 146 185 221 149 224 152 191 0
-187 146 185 221 149 224 152 227 0
-187 146 185 221 149 224 191 227 0
-187 146 185 221 149 152 191 227 0
-187 146 185 221 224 152 191 227 0
-187 146 185 149 224 152 191 227 0
-187 146 221 149 224 152 191 227 0
-187 185 221 149 224 152 191 227 0
-188 -147 -186 -222 -150 0
-188 -147 -186 -222 -225 0
-188 -147 -186 -222 -153 0
-188 -147 -186 -222 -192 0
-188 -147 -186 -222 -228 0
-188 -147 -186 -150 -225 0
-188 -147 -186 -150 -153 0
-188 -147 -186 -150 -192 0
-188 -147 -186 -150 -228 0
-188 -147 -186 -225 -153 0
-188 -147 -186 -225 -192 0
-188 -147 -186 -225 -228 0
-188 -147 -186 -153 -192 0
-188 -147 -186 -153 -228 0
-188 -147 -186 -192 -228 0
-188 -147 -222 -150 -225 0
-188 -147 -222 -150 -153 0
-188 -147 -222 -150 -192 0
-188 -147 -222 -150 -228 0
-188 -147 -222 -225 -153 0
-188 -147 -222 -225 -192 0
-188 -147 -222 -225 -228 0
-188 -147 -222 -153 -192 0
-188 -147 -222 -153 -228 0
-188 -147 -222 -192 -228 0
-188 -147 -150 -225 -153 0
-188 -147 -150 -225 -192 0
-188 -147 -150 -225 -228 0
-188 -147 -150 -153 -192 0
-188 -147 -150 -153 -228 0
-188 -147 -150 -192 -228 0
-188 -147 -225 -153 -192 0
-188 -147 -225 -153 -228 0
-188 -147 -225 -192 -228 0
-188 -147 -153 -192 -228 0
-188 -186 -222 -150 -225 0
-188 -186 -222 -150 -153 0
-188 -186 -222 -150 -192 0
-188 -186 -222 -150 -228 0
-188 -186 -222 -225 -153 0
-188 -186 -222 -225 -192 0
-188 -186 -222 -225 -228 0
-188 -186 -222 -153 -192 0
-188 -186 -222 -153 -228 0
-188 -186 -222 -192 -228 0
-188 -186 -150 -225 -153 0
-188 -186 -150 -225 -192 0
-188 -186 -150 -225 -228 0
-188 -186 -150 -153 -192 0
-188 -186 -150 -153 -228 0
-188 -186 -150 -192 -228 0
-188 -186 -225 -153 -192 0
-188 -186 -225 -153 -228 0
-188 -186 -225 -192 -228 0
-188 -186 -153 -192 -228 0
-188 -222 -150 -225 -153 0
-188 -222 -150 -225 -192 0
-188 -222 -150 -225 -228 0
-188 -222 -150 -153 -192 0
-188 -222 -150 -153 -228 0
-188 -222 -150 -192 -228 0
-188 -222 -225 -153 -192 0
-188 -222 -225 -153 -228 0
-188 -222 -225 -192 -228 0
-188 -222 -153 -192 -228 0
-188 -150 -225 -153 -192 0
-188 -150 -225 -153 -228 0
-188 -150 -225 -192 -228 0
-188 -150 -153 -192 -228 0
-188 -225 -153 -192 -228 0
-188 147 186 222 150 225 153 0
-188 147 186 222 150 225 192 0
-188 147 186 222 150 225 228 0
-188 147 186 222 150 153 192 0
-188 147 186 222 150 153 228 0
-188 147 186 222 150 192 228 0
-188 147 186 222 225 153 192 0
-188 147 186 222 225 153 228 0
-188 147 186 222 225 192 228 0
-188 147 186 222 153 192 228 0
-188 147 186 150 225 153 192 0
-188 147 186 150 225 153 228 0
-188 147 186 150 225 192 228 0
-188 147 186 150 153 192 228 0
-188 147 186 225 153 192 228 0
-188 147 222 150 225 153 192 0
-188 147 222 150 225 153 228 0
-188 147 222 150 225 192 228 0
-188 147 222 150 153 192 228 0
-188 147 222 225 153 192 228 0
-188 147 150 225 153 192 228 0
-188 186 222 150 225 153 192 0
-188 186 222 150 225 153 228 0
-188 186 222 150 225 192 228 0
-188 186 222 150 153 192 228 0
-188 186 222 225 153 192 228 0
-188 186 150 225 153 192 228 0
-188 222 150 225 153 192 228 0
-189 -145 -184 -220 -148 -223 0
-189 -145 -184 -220 -148 -151 0
-189 -145 -184 -220 -148 -190 0
-189 -145 -184 -220 -148 -226 0
-189 -145 -184 -220 -223 -151 0
-189 -145 -184 -220 -223 -190 0
-189 -145 -184 -220 -223 -226 0
-189 -145 -184 -220 -151 -190 0
-189 -145 -184 -220 -151 -226 0
-189 -145 -184 -220 -190 -226 0
-189 -145 -184 -148 -223 -151 0
-189 -145 -184 -148 -223 -190 0
-189 -145 -184 -148 -223 -226 0
-189 -145 -184 -148 -151 -190 0
-189 -145 -184 -148 -151 -226 0
-189 -145 -184 -148 -190 -226 0
-189 -145 -184 -223 -151 -190 0
-189 -145 -184 -223 -151 -226 0
-189 -145 -184 -223 -190 -226 0
-189 -145 -184 -151 -190 -226 0
-189 -145 -220 -148 -223 -151 0
-189 -145 -220 -148 -223 -190 0
-189 -145 -220 -148 -223 -226 0
-189 -145 -220 -148 -151 -190 0
-189 -145 -220 -148 -151 -226 0
-189 -145 -220 -148 -190 -226 0
-189 -145 -220 -223 -151 -190 0
-189 -145 -220 -223 -151 -226 0
-189 -145 -220 -223 -190 -226 0
-189 -145 -220 -151 -190 -226 0
-189 -145 -148 -223 -151 -190 0
-189 -145 -148 -223 -151 -226 0
-189 -145 -148 -223 -190 -226 0
-189 -145 -148 -151 -190 -226 0
-189 -145 -223 -151 -190 -226 0
-189 -184 -220 -148 -223 -151 0
-189 -184 -220 -148 -223 -190 0
-189 -184 -220 -148 -223 -226 0
-189 -184 -220 -148 -151 -190 0
-189 -184 -220 -148 -151 -226 0
-189 -184 -220 -148 -190 -226 0
-189 -184 -220 -223 -151 -190 0
-189 -184 -220 -223 -151 -226 0
-189 -184 -220 -223 -190 -226 0
-189 -184 -220 -151 -190 -226 0
-189 -184 -148 -223 -151 -190 0
-189 -184 -148 -223 -151 -226 0
-189 -184 -148 -223 -190 -226 0
-189 -184 -148 -151 -190 -226 0
-189 -184 -223 -151 -190 -226 0
-189 -220 -148 -223 -151 -190 0
-189 -220 -148 -223 -151 -226 0
-189 -220 -148 -223 -190 -226 0
-189 -220 -148 -151 -190 -226 0
-189 -220 -223 -151 -190 -226 0
-189 -148 -223 -151 -190 -226 0
-189 145 184 220 148 223 0
-189 145 184 220 148 151 0
-189 145 184 220 148 190 0
-189 145 184 220 148 226 0
-189 145 184 220 223 151 0
-189 145 184 220 223 190 0
-189 145 184 220 223 226 0
-189 145 184 220 151 190 0
-189 145 184 220 151 226 0
-189 145 184 220 190 226 0
-189 145 184 148 223 151 0
-189 145 184 148 223 190 0
-189 145 184 148 223 226 0
-189 145 184 148 151 190 0
-189 145 184 148 151 226 0
-189 145 184 148 190 226 0
-189 145 184 223 151 190 0
-189 145 184 223 151 226 0
-189 145 184 223 190 226 0
-189 145 184 151 190 226 0
-189 145 220 148 223 151 0
-189 145 220 148 223 190 0
-189 145 220 148 223 226 0
-189 145 220 148 151 190 0
-189 145 220 148 151 226 0
-189 145 220 148 190 226 0
-189 145 220 223 151 190 0
-189 145 220 223 151 226 0
-189 145 220 223 190 226 0
-189 145 220 151 190 226 0
-189 145 148 223 151 190 0
-189 145 148 223 151 226 0
-189 145 148 223 190 226 0
-189 145 148 151 190 226 0
-189 145 223 151 190 226 0
-189 184 220 148 223 151 0
-189 184 220 148 223 190 0
-189 184 220 148 223 226 0
-189 184 220 148 151 190 0
-189 184 220 148 151 226 0
-189 184 220 148 190 226 0
-189 184 220 223 151 190 0
-189 184 220 223 151 226 0
-189 184 220 223 190 226 0
-189 184 220 151 190 226 0
-189 184 148 223 151 190 0
-189 184 148 223 151 226 0
-189 184 148 223 190 226 0
-189 184 148 151 190 226 0
-189 184 223 151 190 226 0
-189 220 148 223 151 190 0
-189 220 148 223 151 226 0
-189 220 148 223 190 226 0
-189 220 148 151 190 226 0
-189 220 223 151 190 226 0
-189 148 223 151 190 226 0
-190 -191 0
-190 -192 0
-191 -192 0
-190 -149 -188 -224 0
-190 -149 -188 -152 0
-190 -149 -188 -227 0
-190 -149 -188 -155 0
-190 -149 -188 -194 0
-190 -149 -188 -230 0
-190 -149 -224 -152 0
-190 -149 -224 -227 0
-190 -149 -224 -155 0
-190 -149 -224 -194 0
-190 -149 -224 -230 0
-190 -149 -152 -227 0
-190 -149 -152 -155 0
-190 -149 -152 -194 0
-190 -149 -152 -230 0
-190 -149 -227 -155 0
-190 -149 -227 -194 0
-190 -149 -227 -230 0
-190 -149 -155 -194 0
-190 -149 -155 -230 0
-190 -149 -194 -230 0
-190 -188 -224 -152 0
-190 -188 -224 -227 0
-190 -188 -224 -155 0
-190 -188 -224 -194 0
-190 -188 -224 -230 0
-190 -188 -152 -227 0
-190 -188 -152 -155 0
-190 -188 -152 -194 0
-190 -188 -152 -230 0
-190 -188 -227 -155 0
-190 -188 -227 -194 0
-190 -188 -227 -230 0
-190 -188 -155 -194 0
-190 -188 -155 -230 0
-190 -188 -194 -230 0
-190 -224 -152 -227 0
-190 -224 -152 -155 0
-190 -224 -152 -194 0
-190 -224 -152 -230 0
-190 -224 -227 -155 0
-190 -224 -227 -194 0
-190 -224 -227 -230 0
-190 -224 -155 -194 0
-190 -224 -155 -230 0
-190 -224 -194 -230 0
-190 -152 -227 -155 0
-190 -152 -227 -194 0
-190 -152 -227 -230 0
-190 -152 -155 -194 0
-190 -152 -155 -230 0
-190 -152 -194 -230 0
-190 -227 -155 -194 0
-190 -227 -155 -230 0
-190 -227 -194 -230 0
-190 -155 -194 -230 0
-190 149 188 224 152 227 155 194 0
-190 149 188 224 152 227 155 230 0
-190 149 188 224 152 227 194 230 0
-190 149 188 224 152 155 194 230 0
-190 149 188 224 227 155 194 230 0
-190 149 188 152 227 155 194 230 0
-190 149 224 152 227 155 194 230 0
-190 188 224 152 227 155 194 230 0
-191 -150 -189 -225 -153 0
-191 -150 -189 -225 -228 0
-191 -150 -189 -225 -156 0
-191 -150 -189 -225 -195 0
-191 -150 -189 -225 -231 0
-191 -150 -189 -153 -228 0
-191 -150 -189 -153 -156 0
-191 -150 -189 -153 -195 0
-191 -150 -189 -153 -231 0
-191 -150 -189 -228 -156 0
-191 -150 -189 -228 -195 0
-191 -150 -189 -228 -231 0
-191 -150 -189 -156 -195 0
-191 -150 -189 -156 -231 0
-191 -150 -189 -195 -231 0
-191 -150 -225 -153 -228 0
-191 -150 -225 -153 -156 0
-191 -150 -225 -153 -195 0
-191 -150 -225 -153 -231 0
-191 -150 -225 -228 -156 0
-191 -150 -225 -228 -195 0
-191 -150 -225 -228 -231 0
-191 -150 -225 -156 -195 0
-191 -150 -225 -156 -231 0
-191 -150 -225 -195 -231 0
-191 -150 -153 -228 -156 0
-191 -150 -153 -228 -195 0
-191 -150 -153 -228 -231 0
-191 -150 -153 -156 -195 0
-191 -150 -153 -156 -231 0
-191 -150 -153 -195 -231 0
-191 -150 -228 -156 -195 0
-191 -150 -228 -156 -231 0
-191 -150 -228 -195 -231 0
-191 -150 -156 -195 -231 0
-191 -189 -225 -153 -228 0
-191 -189 -225 -153 -156 0
-191 -189 -225 -153 -195 0
-191 -189 -225 -153 -231 0
-191 -189 -225 -228 -156 0
-191 -189 -225 -228 -195 0
-191 -189 -225 -228 -231 0
-191 -189 -225 -156 -195 0
-191 -189 -225 -156 -231 0
-191 -189 -225 -195 -231 0
-191 -189 -153 -228 -156 0
-191 -189 -153 -228 -195 0
-191 -189 -153 -228 -231 0
-191 -189 -153 -156 -195 0
-191 -189 -153 -156 -231 0
-191 -189 -153 -195 -231 0
-191 -189 -228 -156 -195 0
-191 -189 -228 -156 -231 0
-191 -189 -228 -195 -231 0
-191 -189 -156 -195 -231 0
-191 -225 -153 -228 -156 0
-191 -225 -153 -228 -195 0
-191 -225 -153 -228 -231 0
-191 -225 -153 -156 -195 0
-191 -225 -153 -156 -231 0
-191 -225 -153 -195 -231 0
-191 -225 -228 -156 -195 0
-191 -225 -228 -156 -231 0
-191 -225 -228 -195 -231 0
-191 -225 -156 -195 -231 0
-191 -153 -228 -156 -195 0
-191 -153 -228 -156 -231 0
-191 -153 -228 -195 -231 0
-191 -153 -156 -195 -231 0
-191 -228 -156 -195 -231 0
-191 150 189 225 153 228 156 0
-191 150 189 225 153 228 195 0
-191 150 189 225 153 228 231 0
-191 150 189 225 153 156 195 0
-191 150 189 225 153 156 231 0
-191 150 189 225 153 195 231 0
-191 150 189 225 228 156 195 0
-191 150 189 225 228 156 231 0
-191 150 189 225 228 195 231 0
-191 150 189 225 156 195 231 0
-191 150 189 153 228 156 195 0
-191 150 189 153 228 156 231 0
-191 150 189 153 228 195 231 0
-191 150 189 153 156 195 231 0
-191 150 189 228 156 195 231 0
-191 150 225 153 228 156 195 0
-191 150 225 153 228 156 231 0
-191 150 225 153 228 195 231 0
-191 150 225 153 156 195 231 0
-191 150 225 228 156 195 231 0
-191 150 153 228 156 195 231 0
-191 189 225 153 228 156 195 0
-191 189 225 153 228 156 231 0
-191 189 225 153 228 195 231 0
-191 189 225 153 156 195 231 0
-191 189 225 228 156 195 231 0
-191 189 153 228 156 195 231 0
-191 225 153 228 156 195 231 0
-192 -148 -187 -223 -151 -226 0
-192 -148 -187 -223 -151 -154 0
-192 -148 -187 -223 -151 -193 0
-192 -148 -187 -223 -151 -229 0
-192 -148 -187 -223 -226 -154 0
-192 -148 -187 -223 -226 -193 0
-192 -148 -187 -223 -226 -229 0
-192 -148 -187 -223 -154 -193 0
-192 -148 -187 -223 -154 -229 0
-192 -148 -187 -223 -193 -229 0
-192 -148 -187 -151 -226 -154 0
-192 -148 -187 -151 -226 -193 0
-192 -148 -187 -151 -226 -229 0
-192 -148 -187 -151 -154 -193 0
-192 -148 -187 -151 -154 -229 0
-192 -148 -187 -151 -193 -229 0
-192 -148 -187 -226 -154 -193 0
-192 -148 -187 -226 -154 -229 0
-192 -148 -187 -226 -193 -229 0
-192 -148 -187 -154 -193 -229 0
-192 -148 -223 -151 -226 -154 0
-192 -148 -223 -151 -226 -193 0
-192 -148 -223 -151 -226 -229 0
-192 -148 -223 -151 -154 -193 0
-192 -148 -223 -151 -154 -229 0
-192 -148 -223 -151 -193 -229 0
-192 -148 -223 -226 -154 -193 0
-192 -148 -223 -226 -154 -229 0
-192 -148 -223 -226 -193 -229 0
-192 -148 -223 -154 -193 -229 0
-192 -148 -151 -226 -154 -193 0
-192 -148 -151 -226 -154 -229 0
-192 -148 -151 -226 -193 -229 0
-192 -148 -151 -154 -193 -229 0
-192 -148 -226 -154 -193 -229 0
-192 -187 -223 -151 -226 -154 0
-192 -187 -223 -151 -226 -193 0
-192 -187 -223 -151 -226 -229 0
-192 -187 -223 -151 -154 -193 0
-192 -187 -223 -151 -154 -229 0
-192 -187 -223 -151 -193 -229 0
-192 -187 -223 -226 -154 -193 0
-192 -187 -223 -226 -154 -229 0
-192 -187 -223 -226 -193 -229 0
-192 -187 -223 -154 -193 -229 0
-192 -187 -151 -226 -154 -193 0
-192 -187 -151 -226 -154 -229 0
-192 -187 -151 -226 -193 -229 0
-192 -187 -151 -154 -193 -229 0
-192 -187 -226 -154 -193 -229 0
-192 -223 -151 -226 -154 -193 0
-192 -223 -151 -226 -154 -229 0
-192 -223 -151 -226 -193 -229 0
-192 -223 -151 -154 -193 -229 0
-192 -223 -226 -154 -193 -229 0
-192 -151 -226 -154 -193 -229 0
-192 148 187 223 151 226 0
-192 148 187 223 151 154 0
-192 148 187 223 151 193 0
-192 148 187 223 151 229 0
-192 148 187 223 226 154 0
-192 148 187 223 226 193 0
-192 148 187 223 226 229 0
-192 148 187 223 154 193 0
-192 148 187 223 154 229 0
-192 148 187 223 193 229 0
-192 148 187 151 226 154 0
-192 148 187 151 226 193 0
-192 148 187 151 226 229 0
-192 148 187 151 154 193 0
-192 148 187 151 154 229 0
-192 148 187 151 193 229 0
-192 148 187 226 154 193 0
-192 148 187 226 154 229 0
-192 148 187 226 193 229 0
-192 148 187 154 193 229 0
-192 148 223 151 226 154 0
-192 148 223 151 226 193 0
-192 148 223 151 226 229 0
-192 148 223 151 154 193 0
-192 148 223 151 154 229 0
-192 148 223 151 193 229 0
-192 148 223 226 154 193 0
-192 148 223 226 154 229 0
-192 148 223 226 193 229 0
-192 148 223 154 193 229 0
-192 148 151 226 154 193 0
-192 148 151 226 154 229 0
-192 148 151 226 193 229 0
-192 148 151 154 193 229 0
-192 148 226 154 193 229 0
-192 187 223 151 226 154 0
-192 187 223 151 226 193 0
-192 187 223 151 226 229 0
-192 187 223 151 154 193 0
-192 187 223 151 154 229 0
-192 187 223 151 193 229 0
-192 187 223 226 154 193 0
-192 187 223 226 154 229 0
-192 187 223 226 193 229 0
-192 187 223 154 193 229 0
-192 187 151 226 154 193 0
-192 187 151 226 154 229 0
-192 187 151 226 193 229 0
-192 187 151 154 193 229 0
-192 187 226 154 193 229 0
-192 223 151 226 154 193 0
-192 223 151 226 154 229 0
-192 223 151 226 193 229 0
-192 223 151 154 193 229 0
-192 223 226 154 193 229 0
-192 151 226 154 193 229 0
-193 -194 0
-193 -195 0
-194 -195 0
-193 -152 -191 -227 0
-193 -152 -191 -155 0
-193 -152 -191 -230 0
-193 -152 -191 -158 0
-193 -152 -191 -197 0
-193 -152 -191 -233 0
-193 -152 -227 -155 0
-193 -152 -227 -230 0
-193 -152 -227 -158 0
-193 -152 -227 -197 0
-193 -152 -227 -233 0
-193 -152 -155 -230 0
-193 -152 -155 -158 0
-193 -152 -155 -197 0
-193 -152 -155 -233 0
-193 -152 -230 -158 0
-193 -152 -230 -197 0
-193 -152 -230 -233 0
-193 -152 -158 -197 0
-193 -152 -158 -233 0
-193 -152 -197 -233 0
-193 -191 -227 -155 0
-193 -191 -227 -230 0
-193 -191 -227 -158 0
-193 -191 -227 -197 0
-193 -191 -227 -233 0
-193 -191 -155 -230 0
-193 -191 -155 -158 0
-193 -191 -155 -197 0
-193 -191 -155 -233 0
-193 -191 -230 -158 0
-193 -191 -230 -197 0
-193 -191 -230 -233 0
-193 -191 -158 -197 0
-193 -191 -158 -233 0
-193 -191 -197 -233 0
-193 -227 -155 -230 0
-193 -227 -155 -158 0
-193 -227 -155 -197 0
-193 -227 -155 -233 0
-193 -227 -230 -158 0
-193 -227 -230 -197 0
-193 -227 -230 -233 0
-193 -227 -158 -197 0
-193 -227 -158 -233 0
-193 -227 -197 -233 0
-193 -155 -230 -158 0
-193 -155 -230 -197 0
-193 -155 -230 -233 0
-193 -155 -158 -197 0
-193 -155 -158 -233 0
-193 -155 -197 -233 0
-193 -230 -158 -197 0
-193 -230 -158 -233 0
-193 -230 -197 -233 0
-193 -158 -197 -233 0
-193 152 191 227 155 230 158 197 0
-193 152 191 227 155 230 158 233 0
-193 152 191 227 155 230 197 233 0
-193 152 191 227 155 158 197 233 0
-193 152 191 227 230 158 197 233 0
-193 152 191 155 230 158 197 233 0
-193 152 227 155 230 158 197 233 0
-193 191 227 155 230 158 197 233 0
-194 -153 -192 -228 -156 0
-194 -153 -192 -228 -231 0
-194 -153 -192 -228 -159 0
-194 -153 -192 -228 -198 0
-194 -153 -192 -228 -234 0
-194 -153 -192 -156 -231 0
-194 -153 -192 -156 -159 0
-194 -153 -192 -156 -198 0
-194 -153 -192 -156 -234 0
-194 -153 -192 -231 -159 0
-194 -153 -192 -231 -198 0
-194 -153 -192 -231 -234 0
-194 -153 -192 -159 -198 0
-194 -153 -192 -159 -234 0
-194 -153 -192 -198 -234 0
-194 -153 -228 -156 -231 0
-194 -153 -228 -156 -159 0
-194 -153 -228 -156 -198 0
-194 -153 -228 -156 -234 0
-194 -153 -228 -231 -159 0
-194 -153 -228 -231 -198 0
-194 -153 -228 -231 -234 0
-194 -153 -228 -159 -198 0
-194 -153 -228 -159 -234 0
-194 -153 -228 -198 -234 0
-194 -153 -156 -231 -159 0
-194 -153 -156 -231 -198 0
-194 -153 -156 -231 -234 0
-194 -153 -156 -159 -198 0
-194 -153 -156 -159 -234 0
-194 -153 -156 -198 -234 0
-194 -153 -231 -159 -198 0
-194 -153 -231 -159 -234 0
-194 -153 -231 -198 -234 0
-194 -153 -159 -198 -234 0
-194 -192 -228 -156 -231 0
-194 -192 -228 -156 -159 0
-194 -192 -228 -156 -198 0
-194 -192 -228 -156 -234 0
-194 -192 -228 -231 -159 0
-194 -192 -228 -231 -198 0
-194 -192 -228 -231 -234 0
-194 -192 -228 -159 -198 0
-194 -192 -228 -159 -234 0
-194 -192 -228 -198 -234 0
-194 -192 -156 -231 -159 0
-194 -192 -156 -231 -198 0
-194 -192 -156 -231 -234 0
-194 -192 -156 -159 -198 0
-194 -192 -156 -159 -234 0
-194 -192 -156 -198 -234 0
-194 -192 -231 -159 -198 0
-194 -192 -231 -159 -234 0
-194 -192 -231 -198 -234 0
-194 -192 -159 -198 -234 0
-194 -228 -156 -231 -159 0
-194 -228 -156 -231 -198 0
-194 -228 -156 -231 -234 0
-194 -228 -156 -159 -198 0
-194 -228 -156 -159 -234 0
-194 -228 -156 -198 -234 0
-194 -228 -231 -159 -198 0
-194 -228 -231 -159 -234 0
-194 -228 -231 -198 -234 0
-194 -228 -159 -198 -234 0
-194 -156 -231 -159 -198 0
-194 -156 -231 -159 -234 0
-194 -156 -231 -198 -234 0
-194 -156 -159 -198 -234 0
-194 -231 -159 -198 -234 0
-194 153 192 228 156 231 159 0
-194 153 192 228 156 231 198 0
-194 153 192 228 156 231 234 0
-194 153 192 228 156 159 198 0
-194 153 192 228 156 159 234 0
-194 153 192 228 156 198 234 0
-194 153 192 228 231 159 198 0
-194 153 192 228 231 159 234 0
-194 153 192 228 231 198 234 0
-194 153 192 228 159 198 234 0
-194 153 192 156 231 159 198 0
-194 153 192 156 231 159 234 0
-194 153 192 156 231 198 234 0
-194 153 192 156 159 198 234 0
-194 153 192 231 159 198 234 0
-194 153 228 156 231 159 198 0
-194 153 228 156 231 159 234 0
-194 153 228 156 231 198 234 0
-194 153 228 156 159 198 234 0
-194 153 228 231 159 198 234 0
-194 153 156 231 159 198 234 0
-194 192 228 156 231 159 198 0
-194 192 228 156 231 159 234 0
-194 192 228 156 231 198 234 0
-194 192 228 156 159 198 234 0
-194 192 228 231 159 198 234 0
-194 192 156 231 159 198 234 0
-194 228 156 231 159 198 234 0
-195 -151 -190 -226 -154 -229 0
-195 -151 -190 -226 -154 -157 0
-195 -151 -190 -226 -154 -196 0
-195 -151 -190 -226 -154 -232 0
-195 -151 -190 -226 -229 -157 0
-195 -151 -190 -226 -229 -196 0
-195 -151 -190 -226 -229 -232 0
-195 -151 -190 -226 -157 -196 0
-195 -151 -190 -226 -157 -232 0
-195 -151 -190 -226 -196 -232 0
-195 -151 -190 -154 -229 -157 0
-195 -151 -190 -154 -229 -196 0
-195 -151 -190 -154 -229 -232 0
-195 -151 -190 -154 -157 -196 0
-195 -151 -190 -154 -157 -232 0
-195 -151 -190 -154 -196 -232 0
-195 -151 -190 -229 -157 -196 0
-195 -151 -190 -229 -157 -232 0
-195 -151 -190 -229 -196 -232 0
-195 -151 -190 -157 -196 -232 0
-195 -151 -226 -154 -229 -157 0
-195 -151 -226 -154 -229 -196 0
-195 -151 -226 -154 -229 -232 0
-195 -151 -226 -154 -157 -196 0
-195 -151 -226 -154 -157 -232 0
-195 -151 -226 -154 -196 -232 0
-195 -151 -226 -229 -157 -196 0
-195 -151 -226 -229 -157 -232 0
-195 -151 -226 -229 -196 -232 0
-195 -151 -226 -157 -196 -232 0
-195 -151 -154 -229 -157 -196 0
-195 -151 -154 -229 -157 -232 0
-195 -151 -154 -229 -196 -232 0
-195 -151 -154 -157 -196 -232 0
-195 -151 -229 -157 -196 -232 0
-195 -190 -226 -154 -229 -157 0
-195 -190 -226 -154 -229 -196 0
-195 -190 -226 -154 -229 -232 0
-195 -190 -226 -154 -157 -196 0
-195 -190 -226 -154 -157 -232 0
-195 -190 -226 -154 -196 -232 0
-195 -190 -226 -229 -157 -196 0
-195 -190 -226 -229 -157 -232 0
-195 -190 -226 -229 -196 -232 0
-195 -190 -226 -157 -196 -232 0
-195 -190 -154 -229 -157 -196 0
-195 -190 -154 -229 -157 -232 0
-195 -190 -154 -229 -196 -232 0
-195 -190 -154 -157 -196 -232 0
-195 -190 -229 -157 -196 -232 0
-195 -226 -154 -229 -157 -196 0
-195 -226 -154 -229 -157 -232 0
-195 -226 -154 -229 -196 -232 0
-195 -226 -154 -157 -196 -232 0
-195 -226 -229 -157 -196 -232 0
-195 -154 -229 -157 -196 -232 0
-195 151 190 226 154 229 0
-195 151 190 226 154 157 0
-195 151 190 226 154 196 0
-195 151 190 226 154 232 0
-195 151 190 226 229 157 0
-195 151 190 226 229 196 0
-195 151 190 226 229 232 0
-195 151 190 226 157 196 0
-195 151 190 226 157 232 0
-195 151 190 226 196 232 0
-195 151 190 154 229 157 0
-195 151 190 154 229 196 0
-195 151 190 154 229 232 0
-195 151 190 154 157 196 0
-195 151 190 154 157 232 0
-195 151 190 154 196 232 0
-195 151 190 229 157 196 0
-195 151 190 229 157 232 0
-195 151 190 229 196 232 0
-195 151 190 157 196 232 0
-195 151 226 154 229 157 0
-195 151 226 154 229 196 0
-195 151 226 154 229 232 0
-195 151 226 154 157 196 0
-195 151 226 154 157 232 0
-195 151 226 154 196 232 0
-195 151 226 229 157 196 0
-195 151 226 229 157 232 0
-195 151 226 229 196 232 0
-195 151 226 157 196 232 0
-195 151 154 229 157 196 0
-195 151 154 229 157 232 0
-195 151 154 229 196 232 0
-195 151 154 157 196 232 0
-195 151 229 157 196 232 0
-195 190 226 154 229 157 0
-195 190 226 154 229 196 0
-195 190 226 154 229 232 0
-195 190 226 154 157 196 0
-195 190 226 154 157 232 0
-195 190 226 154 196 232 0
-195 190 226 229 157 196 0
-195 190 226 229 157 232 0
-195 190 226 229 196 232 0
-195 190 226 157 196 232 0
-195 190 154 229 157 196 0
-195 190 154 229 157 232 0
-195 190 154 229 196 232 0
-195 190 154 157 196 232 0
-195 190 229 157 196 232 0
-195 226 154 229 157 196 0
-195 226 154 229 157 232 0
-195 226 154 229 196 232 0
-195 226 154 157 196 232 0
-195 226 229 157 196 232 0
-195 154 229 157 196 232 0
-196 -197 0
-196 -198 0
-197 -198 0
-196 -155 -194 -230 0
-196 -155 -194 -158 0
-196 -155 -194 -233 0
-196 -155 -194 -161 0
-196 -155 -194 -200 0
-196 -155 -194 -236 0
-196 -155 -230 -158 0
-196 -155 -230 -233 0
-196 -155 -230 -161 0
-196 -155 -230 -200 0
-196 -155 -230 -236 0
-196 -155 -158 -233 0
-196 -155 -158 -161 0
-196 -155 -158 -200 0
-196 -155 -158 -236 0
-196 -155 -233 -161 0
-196 -155 -233 -200 0
-196 -155 -233 -236 0
-196 -155 -161 -200 0
-196 -155 -161 -236 0
-196 -155 -200 -236 0
-196 -194 -230 -158 0
-196 -194 -230 -233 0
-196 -194 -230 -161 0
-196 -194 -230 -200 0
-196 -194 -230 -236 0
-196 -194 -158 -233 0
-196 -194 -158 -161 0
-196 -194 -158 -200 0
-196 -194 -158 -236 0
-196 -194 -233 -161 0
-196 -194 -233 -200 0
-196 -194 -233 -236 0
-196 -194 -161 -200 0
-196 -194 -161 -236 0
-196 -194 -200 -236 0
-196 -230 -158 -233 0
-196 -230 -158 -161 0
-196 -230 -158 -200 0
-196 -230 -158 -236 0
-196 -230 -233 -161 0
-196 -230 -233 -200 0
-196 -230 -233 -236 0
-196 -230 -161 -200 0
-196 -230 -161 -236 0
-196 -230 -200 -236 0
-196 -158 -233 -161 0
-196 -158 -233 -200 0
-196 -158 -233 -236 0
-196 -158 -161 -200 0
-196 -158 -161 -236 0
-196 -158 -200 -236 0
-196 -233 -161 -200 0
-196 -233 -161 -236 0
-196 -233 -200 -236 0
-196 -161 -200 -236 0
-196 155 194 230 158 233 161 200 0
-196 155 194 230 158 233 161 236 0
-196 155 194 230 158 233 200 236 0
-196 155 194 230 158 161 200 236 0
-196 155 194 230 233 161 200 236 0
-196 155 194 158 233 161 200 236 0
-196 155 230 158 233 161 200 236 0
-196 194 230 158 233 161 200 236 0
-197 -156 -195 -231 -159 0
-197 -156 -195 -231 -234 0
-197 -156 -195 -231 -162 0
-197 -156 -195 -231 -201 0
-197 -156 -195 -231 -237 0
-197 -156 -195 -159 -234 0
-197 -156 -195 -159 -162 0
-197 -156 -195 -159 -201 0
-197 -156 -195 -159 -237 0
-197 -156 -195 -234 -162 0
-197 -156 -195 -234 -201 0
-197 -156 -195 -234 -237 0
-197 -156 -195 -162 -201 0
-197 -156 -195 -162 -237 0
-197 -156 -195 -201 -237 0
-197 -156 -231 -159 -234 0
-197 -156 -231 -159 -162 0
-197 -156 -231 -159 -201 0
-197 -156 -231 -159 -237 0
-197 -156 -231 -234 -162 0
-197 -156 -231 -234 -201 0
-197 -156 -231 -234 -237 0
-197 -156 -231 -162 -201 0
-197 -156 -231 -162 -237 0
-197 -156 -231 -201 -237 0
-197 -156 -159 -234 -162 0
-197 -156 -159 -234 -201 0
-197 -156 -159 -234 -237 0
-197 -156 -159 -162 -201 0
-197 -156 -159 -162 -237 0
-197 -156 -159 -201 -237 0
-197 -156 -234 -162 -201 0
-197 -156 -234 -162 -237 0
-197 -156 -234 -201 -237 0
-197 -156 -162 -201 -237 0
-197 -195 -231 -159 -234 0
-197 -195 -231 -159 -162 0
-197 -195 -231 -159 -201 0
-197 -195 -231 -159 -237 0
-197 -195 -231 -234 -162 0
-197 -195 -231 -234 -201 0
-197 -195 -231 -234 -237 0
-197 -195 -231 -162 -201 0
-197 -195 -231 -162 -237 0
-197 -195 -231 -201 -237 0
-197 -195 -159 -234 -162 0
-197 -195 -159 -234 -201 0
-197 -195 -159 -234 -237 0
-197 -195 -159 -162 -201 0
-197 -195 -159 -162 -237 0
-197 -195 -159 -201 -237 0
-197 -195 -234 -162 -201 0
-197 -195 -234 -162 -237 0
-197 -195 -234 -201 -237 0
-197 -195 -162 -201 -237 0
-197 -231 -159 -234 -162 0
-197 -231 -159 -234 -201 0
-197 -231 -159 -234 -237 0
-197 -231 -159 -162 -201 0
-197 -231 -159 -162 -237 0
-197 -231 -159 -201 -237 0
-197 -231 -234 -162 -201 0
-197 -231 -234 -162 -237 0
-197 -231 -234 -201 -237 0
-197 -231 -162 -201 -237 0
-197 -159 -234 -162 -201 0
-197 -159 -234 -162 -237 0
-197 -159 -234 -201 -237 0
-197 -159 -162 -201 -237 0
-197 -234 -162 -201 -237 0
-197 156 195 231 159 234 162 0
-197 156 195 231 159 234 201 0
-197 156 195 231 159 234 237 0
-197 156 195 231 159 162 201 0
-197 156 195 231 159 162 237 0
-197 156 195 231 159 201 237 0
-197 156 195 231 234 162 201 0
-197 156 195 231 234 162 237 0
-197 156 195 231 234 201 237 0
-197 156 195 231 162 201 237 0
-197 156 195 159 234 162 201 0
-197 156 195 159 234 162 237 0
-197 156 195 159 234 201 237 0
-197 156 195 159 162 201 237 0
-197 156 195 234 162 201 237 0
-197 156 231 159 234 162 201 0
-197 156 231 159 234 162 237 0
-197 156 231 159 234 201 237 0
-197 156 231 159 162 201 237 0
-197 156 231 234 162 201 237 0
-197 156 159 234 162 201 237 0
-197 195 231 159 234 162 201 0
-197 195 231 159 234 162 237 0
-197 195 231 159 234 201 237 0
-197 195 231 159 162 201 237 0
-197 195 231 234 162 201 237 0
-197 195 159 234 162 201 237 0
-197 231 159 234 162 201 237 0
-198 -154 -193 -229 -157 -232 0
-198 -154 -193 -229 -157 -160 0
-198 -154 -193 -229 -157 -199 0
-198 -154 -193 -229 -157 -235 0
-198 -154 -193 -229 -232 -160 0
-198 -154 -193 -229 -232 -199 0
-198 -154 -193 -229 -232 -235 0
-198 -154 -193 -229 -160 -199 0
-198 -154 -193 -229 -160 -235 0
-198 -154 -193 -229 -199 -235 0
-198 -154 -193 -157 -232 -160 0
-198 -154 -193 -157 -232 -199 0
-198 -154 -193 -157 -232 -235 0
-198 -154 -193 -157 -160 -199 0
-198 -154 -193 -157 -160 -235 0
-198 -154 -193 -157 -199 -235 0
-198 -154 -193 -232 -160 -199 0
-198 -154 -193 -232 -160 -235 0
-198 -154 -193 -232 -199 -235 0
-198 -154 -193 -160 -199 -235 0
-198 -154 -229 -157 -232 -160 0
-198 -154 -229 -157 -232 -199 0
-198 -154 -229 -157 -232 -235 0
-198 -154 -229 -157 -160 -199 0
-198 -154 -229 -157 -160 -235 0
-198 -154 -229 -157 -199 -235 0
-198 -154 -229 -232 -160 -199 0
-198 -154 -229 -232 -160 -235 0
-198 -154 -229 -232 -199 -235 0
-198 -154 -229 -160 -199 -235 0
-198 -154 -157 -232 -160 -199 0
-198 -154 -157 -232 -160 -235 0
-198 -154 -157 -232 -199 -235 0
-198 -154 -157 -160 -199 -235 0
-198 -154 -232 -160 -199 -235 0
-198 -193 -229 -157 -232 -160 0
-198 -193 -229 -157 -232 -199 0
-198 -193 -229 -157 -232 -235 0
-198 -193 -229 -157 -160 -199 0
-198 -193 -229 -157 -160 -235 0
-198 -193 -229 -157 -199 -235 0
-198 -193 -229 -232 -160 -199 0
-198 -193 -229 -232 -160 -235 0
-198 -193 -229 -232 -199 -235 0
-198 -193 -229 -160 -199 -235 0
-198 -193 -157 -232 -160 -199 0
-198 -193 -157 -232 -160 -235 0
-198 -193 -157 -232 -199 -235 0
-198 -193 -157 -160 -199 -235 0
-198 -193 -232 -160 -199 -235 0
-198 -229 -157 -232 -160 -199 0
-198 -229 -157 -232 -160 -235 0
-198 -229 -157 -232 -199 -235 0
-198 -229 -157 -160 -199 -235 0
-198 -229 -232 -160 -199 -235 0
-198 -157 -232 -160 -199 -235 0
-198 154 193 229 157 232 0
-198 154 193 229 157 160 0
-198 154 193 229 157 199 0
-198 154 193 229 157 235 0
-198 154 193 229 232 160 0
-198 154 193 229 232 199 0
-198 154 193 229 232 235 0
-198 154 193 229 160 199 0
-198 154 193 229 160 235 0
-198 154 193 229 199 235 0
-198 154 193 157 232 160 0
-198 154 193 157 232 199 0
-198 154 193 157 232 235 0
-198 154 193 157 160 199 0
-198 154 193 157 160 235 0
-198 154 193 157 199 235 0
-198 154 193 232 160 199 0
-198 154 193 232 160 235 0
-198 154 193 232 199 235 0
-198 154 193 160 199 235 0
-198 154 229 157 232 160 0
-198 154 229 157 232 199 0
-198 154 229 157 232 235 0
-198 154 229 157 160 199 0
-198 154 229 157 160 235 0
-198 154 229 157 199 235 0
-198 154 229 232 160 199 0
-198 154 229 232 160 235 0
-198 154 229 232 199 235 0
-198 154 229 160 199 235 0
-198 154 157 232 160 199 0
-198 154 157 232 160 235 0
-198 154 157 232 199 235 0
-198 154 157 160 199 235 0
-198 154 232 160 199 235 0
-198 193 229 157 232 160 0
-198 193 229 157 232 199 0
-198 193 229 157 232 235 0
-198 193 229 157 160 199 0
-198 193 229 157 160 235 0
-198 193 229 157 199 235 0
-198 193 229 232 160 199 0
-198 193 229 232 160 235 0
-198 193 229 232 199 235 0
-198 193 229 160 199 235 0
-198 193 157 232 160 199 0
-198 193 157 232 160 235 0
-198 193 157 232 199 235 0
-198 193 157 160 199 235 0
-198 193 232 160 199 235 0
-198 229 157 232 160 199 0
-198 229 157 232 160 235 0
-198 229 157 232 199 235 0
-198 229 157 160 199 235 0
-198 229 232 160 199 235 0
-198 157 232 160 199 235 0
-199 -200 0
-199 -201 0
-200 -201 0
-199 -158 -197 -233 0
-199 -158 -197 -161 0
-199 -158 -197 -236 0
-199 -158 -197 -164 0
-199 -158 -197 -203 0
-199 -158 -197 -239 0
-199 -158 -233 -161 0
-199 -158 -233 -236 0
-199 -158 -233 -164 0
-199 -158 -233 -203 0
-199 -158 -233 -239 0
-199 -158 -161 -236 0
-199 -158 -161 -164 0
-199 -158 -161 -203 0
-199 -158 -161 -239 0
-199 -158 -236 -164 0
-199 -158 -236 -203 0
-199 -158 -236 -239 0
-199 -158 -164 -203 0
-199 -158 -164 -239 0
-199 -158 -203 -239 0
-199 -197 -233 -161 0
-199 -197 -233 -236 0
-199 -197 -233 -164 0
-199 -197 -233 -203 0
-199 -197 -233 -239 0
-199 -197 -161 -236 0
-199 -197 -161 -164 0
-199 -197 -161 -203 0
-199 -197 -161 -239 0
-199 -197 -236 -164 0
-199 -197 -236 -203 0
-199 -197 -236 -239 0
-199 -197 -164 -203 0
-199 -197 -164 -239 0
-199 -197 -203 -239 0
-199 -233 -161 -236 0
-199 -233 -161 -164 0
-199 -233 -161 -203 0
-199 -233 -161 -239 0
-199 -233 -236 -164 0
-199 -233 -236 -203 0
-199 -233 -236 -239 0
-199 -233 -164 -203 0
-199 -233 -164 -239 0
-199 -233 -203 -239 0
-199 -161 -236 -164 0
-199 -161 -236 -203 0
-199 -161 -236 -239 0
-199 -161 -164 -203 0
-199 -161 -164 -239 0
-199 -161 -203 -239 0
-199 -236 -164 -203 0
-199 -236 -164 -239 0
-199 -236 -203 -239 0
-199 -164 -203 -239 0
-199 158 197 233 161 236 164 203 0
-199 158 197 233 161 236 164 239 0
-199 158 197 233 161 236 203 239 0
-199 158 197 233 161 164 203 239 0
-199 158 197 233 236 164 203 239 0
-199 158 197 161 236 164 203 239 0
-199 158 233 161 236 164 203 239 0
-199 197 233 161 236 164 203 239 0
-200 -159 -198 -234 -162 0
-200 -159 -198 -234 -237 0
-200 -159 -198 -234 -165 0
-200 -159 -198 -234 -204 0
-200 -159 -198 -234 -240 0
-200 -159 -198 -162 -237 0
-200 -159 -198 -162 -165 0
-200 -159 -198 -162 -204 0
-200 -159 -198 -162 -240 0
-200 -159 -198 -237 -165 0
-200 -159 -198 -237 -204 0
-200 -159 -198 -237 -240 0
-200 -159 -198 -165 -204 0
-200 -159 -198 -165 -240 0
-200 -159 -198 -204 -240 0
-200 -159 -234 -162 -237 0
-200 -159 -234 -162 -165 0
-200 -159 -234 -162 -204 0
-200 -159 -234 -162 -240 0
-200 -159 -234 -237 -165 0
-200 -159 -234 -237 -204 0
-200 -159 -234 -237 -240 0
-200 -159 -234 -165 -204 0
-200 -159 -234 -165 -240 0
-200 -159 -234 -204 -240 0
-200 -159 -162 -237 -165 0
-200 -159 -162 -237 -204 0
-200 -159 -162 -237 -240 0
-200 -159 -162 -165 -204 0
-200 -159 -162 -165 -240 0
-200 -159 -162 -204 -240 0
-200 -159 -237 -165 -204 0
-200 -159 -237 -165 -240 0
-200 -159 -237 -204 -240 0
-200 -159 -165 -204 -240 0
-200 -198 -234 -162 -237 0
-200 -198 -234 -162 -165 0
-200 -198 -234 -162 -204 0
-200 -198 -234 -162 -240 0
-200 -198 -234 -237 -165 0
-200 -198 -234 -237 -204 0
-200 -198 -234 -237 -240 0
-200 -198 -234 -165 -204 0
-200 -198 -234 -165 -240 0
-200 -198 -234 -204 -240 0
-200 -198 -162 -237 -165 0
-200 -198 -162 -237 -204 0
-200 -198 -162 -237 -240 0
-200 -198 -162 -165 -204 0
-200 -198 -162 -165 -240 0
-200 -198 -162 -204 -240 0
-200 -198 -237 -165 -204 0
-200 -198 -237 -165 -240 0
-200 -198 -237 -204 -240 0
-200 -198 -165 -204 -240 0
-200 -234 -162 -237 -165 0
-200 -234 -162 -237 -204 0
-200 -234 -162 -237 -240 0
-200 -234 -162 -165 -204 0
-200 -234 -162 -165 -240 0
-200 -234 -162 -204 -240 0
-200 -234 -237 -165 -204 0
-200 -234 -237 -165 -240 0
-200 -234 -237 -204 -240 0
-200 -234 -165 -204 -240 0
-200 -162 -237 -165 -204 0
-200 -162 -237 -165 -240 0
-200 -162 -237 -204 -240 0
-200 -162 -165 -204 -240 0
-200 -237 -165 -204 -240 0
-200 159 198 234 162 237 165 0
-200 159 198 234 162 237 204 0
-200 159 198 234 162 237 240 0
-200 159 198 234 162 165 204 0
-200 159 198 234 162 165 240 0
-200 159 198 234 162 204 240 0
-200 159 198 234 237 165 204 0
-200 159 198 234 237 165 240 0
-200 159 198 234 237 204 240 0
-200 159 198 234 165 204 240 0
-200 159 198 162 237 165 204 0
-200 159 198 162 237 165 240 0
-200 159 198 162 237 204 240 0
-200 159 198 162 165 204 240 0
-200 159 198 237 165 204 240 0
-200 159 234 162 237 165 204 0
-200 159 234 162 237 165 240 0
-200 159 234 162 237 204 240 0
-200 159 234 162 165 204 240 0
-200 159 234 237 165 204 240 0
-200 159 162 237 165 204 240 0
-200 198 234 162 237 165 204 0
-200 198 234 162 237 165 240 0
-200 198 234 162 237 204 240 0
-200 198 234 162 165 204 240 0
-200 198 234 237 165 204 240 0
-200 198 162 237 165 204 240 0
-200 234 162 237 165 204 240 0
-201 -157 -196 -232 -160 -235 0
-201 -157 -196 -232 -160 -163 0
-201 -157 -196 -232 -160 -202 0
-201 -157 -196 -232 -160 -238 0
-201 -157 -196 -232 -235 -163 0
-201 -157 -196 -232 -235 -202 0
-201 -157 -196 -232 -235 -238 0
-201 -157 -196 -232 -163 -202 0
-201 -157 -196 -232 -163 -238 0
-201 -157 -196 -232 -202 -238 0
-201 -157 -196 -160 -235 -163 0
-201 -157 -196 -160 -235 -202 0
-201 -157 -196 -160 -235 -238 0
-201 -157 -196 -160 -163 -202 0
-201 -157 -196 -160 -163 -238 0
-201 -157 -196 -160 -202 -238 0
-201 -157 -196 -235 -163 -202 0
-201 -157 -196 -235 -163 -238 0
-201 -157 -196 -235 -202 -238 0
-201 -157 -196 -163 -202 -238 0
-201 -157 -232 -160 -235 -163 0
-201 -157 -232 -160 -235 -202 0
-201 -157 -232 -160 -235 -238 0
-201 -157 -232 -160 -163 -202 0
-201 -157 -232 -160 -163 -238 0
-201 -157 -232 -160 -202 -238 0
-201 -157 -232 -235 -163 -202 0
-201 -157 -232 -235 -163 -238 0
-201 -157 -232 -235 -202 -238 0
-201 -157 -232 -163 -202 -238 0
-201 -157 -160 -235 -163 -202 0
-201 -157 -160 -235 -163 -238 0
-201 -157 -160 -235 -202 -238 0
-201 -157 -160 -163 -202 -238 0
-201 -157 -235 -163 -202 -238 0
-201 -196 -232 -160 -235 -163 0
-201 -196 -232 -160 -235 -202 0
-201 -196 -232 -160 -235 -238 0
-201 -196 -232 -160 -163 -202 0
-201 -196 -232 -160 -163 -238 0
-201 -196 -232 -160 -202 -238 0
-201 -196 -232 -235 -163 -202 0
-201 -196 -232 -235 -163 -238 0
-201 -196 -232 -235 -202 -238 0
-201 -196 -232 -163 -202 -238 0
-201 -196 -160 -235 -163 -202 0
-201 -196 -160 -235 -163 -238 0
-201 -196 -160 -235 -202 -238 0
-201 -196 -160 -163 -202 -238 0
-201 -196 -235 -163 -202 -238 0
-201 -232 -160 -235 -163 -202 0
-201 -232 -160 -235 -163 -238 0
-201 -232 -160 -235 -202 -238 0
-201 -232 -160 -163 -202 -238 0
-201 -232 -235 -163 -202 -238 0
-201 -160 -235 -163 -202 -238 0
-201 157 196 232 160 235 0
-201 157 196 232 160 163 0
-201 157 196 232 160 202 0
-201 157 196 232 160 238 0
-201 157 196 232 235 163 0
-201 157 196 232 235 202 0
-201 157 196 232 235 238 0
-201 157 196 232 163 202 0
-201 157 196 232 163 238 0
-201 157 196 232 202 238 0
-201 157 196 160 235 163 0
-201 157 196 160 235 202 0
-201 157 196 160 235 238 0
-201 157 196 160 163 202 0
-201 157 196 160 163 238 0
-201 157 196 160 202 238 0
-201 157 196 235 163 202 0
-201 157 196 235 163 238 0
-201 157 196 235 202 238 0
-201 157 196 163 202 238 0
-201 157 232 160 235 163 0
-201 157 232 160 235 202 0
-201 157 232 160 235 238 0
-201 157 232 160 163 202 0
-201 157 232 160 163 238 0
-201 157 232 160 202 238 0
-201 157 232 235 163 202 0
-201 157 232 235 163 238 0
-201 157 232 235 202 238 0
-201 157 232 163 202 238 0
-201 157 160 235 163 202 0
-201 157 160 235 163 238 0
-201 157 160 235 202 238 0
-201 157 160 163 202 238 0
-201 157 235 163 202 238 0
-201 196 232 160 235 163 0
-201 196 232 160 235 202 0
-201 196 232 160 235 238 0
-201 196 232 160 163 202 0
-201 196 232 160 163 238 0
-201 196 232 160 202 238 0
-201 196 232 235 163 202 0
-201 196 232 235 163 238 0
-201 196 232 235 202 238 0
-201 196 232 163 202 238 0
-201 196 160 235 163 202 0
-201 196 160 235 163 238 0
-201 196 160 235 202 238 0
-201 196 160 163 202 238 0
-201 196 235 163 202 238 0
-201 232 160 235 163 202 0
-201 232 160 235 163 238 0
-201 232 160 235 202 238 0
-201 232 160 163 202 238 0
-201 232 235 163 202 238 0
-201 160 235 163 202 238 0
-202 -203 0
-202 -204 0
-203 -204 0
-202 -161 -200 -236 0
-202 -161 -200 -164 0
-202 -161 -200 -239 0
-202 -161 -200 -167 0
-202 -161 -200 -206 0
-202 -161 -200 -242 0
-202 -161 -236 -164 0
-202 -161 -236 -239 0
-202 -161 -236 -167 0
-202 -161 -236 -206 0
-202 -161 -236 -242 0
-202 -161 -164 -239 0
-202 -161 -164 -167 0
-202 -161 -164 -206 0
-202 -161 -164 -242 0
-202 -161 -239 -167 0
-202 -161 -239 -206 0
-202 -161 -239 -242 0
-202 -161 -167 -206 0
-202 -161 -167 -242 0
-202 -161 -206 -242 0
-202 -200 -236 -164 0
-202 -200 -236 -239 0
-202 -200 -236 -167 0
-202 -200 -236 -206 0
-202 -200 -236 -242 0
-202 -200 -164 -239 0
-202 -200 -164 -167 0
-202 -200 -164 -206 0
-202 -200 -164 -242 0
-202 -200 -239 -167 0
-202 -200 -239 -206 0
-202 -200 -239 -242 0
-202 -200 -167 -206 0
-202 -200 -167 -242 0
-202 -200 -206 -242 0
-202 -236 -164 -239 0
-202 -236 -164 -167 0
-202 -236 -164 -206 0
-202 -236 -164 -242 0
-202 -236 -239 -167 0
-202 -236 -239 -206 0
-202 -236 -239 -242 0
-202 -236 -167 -206 0
-202 -236 -167 -242 0
-202 -236 -206 -242 0
-202 -164 -239 -167 0
-202 -164 -239 -206 0
-202 -164 -239 -242 0
-202 -164 -167 -206 0
-202 -164 -167 -242 0
-202 -164 -206 -242 0
-202 -239 -167 -206 0
-202 -239 -167 -242 0
-202 -239 -206 -242 0
-202 -167 -206 -242 0
-202 161 200 236 164 239 167 206 0
-202 161 200 236 164 239 167 242 0
-202 161 200 236 164 239 206 242 0
-202 161 200 236 164 167 206 242 0
-202 161 200 236 239 167 206 242 0
-202 161 200 164 239 167 206 242 0
-202 161 236 164 239 167 206 242 0
-202 200 236 164 239 167 206 242 0
-203 -162 -201 -237 -165 0
-203 -162 -201 -237 -240 0
-203 -162 -201 -237 -168 0
-203 -162 -201 -237 -207 0
-203 -162 -201 -237 -243 0
-203 -162 -201 -165 -240 0
-203 -162 -201 -165 -168 0
-203 -162 -201 -165 -207 0
-203 -162 -201 -165 -243 0
-203 -162 -201 -240 -168 0
-203 -162 -201 -240 -207 0
-203 -162 -201 -240 -243 0
-203 -162 -201 -168 -207 0
-203 -162 -201 -168 -243 0
-203 -162 -201 -207 -243 0
-203 -162 -237 -165 -240 0
-203 -162 -237 -165 -168 0
-203 -162 -237 -165 -207 0
-203 -162 -237 -165 -243 0
-203 -162 -237 -240 -168 0
-203 -162 -237 -240 -207 0
-203 -162 -237 -240 -243 0
-203 -162 -237 -168 -207 0
-203 -162 -237 -168 -243 0
-203 -162 -237 -207 -243 0
-203 -162 -165 -240 -168 0
-203 -162 -165 -240 -207 0
-203 -162 -165 -240 -243 0
-203 -162 -165 -168 -207 0
-203 -162 -165 -168 -243 0
-203 -162 -165 -207 -243 0
-203 -162 -240 -168 -207 0
-203 -162 -240 -168 -243 0
-203 -162 -240 -207 -243 0
-203 -162 -168 -207 -243 0
-203 -201 -237 -165 -240 0
-203 -201 -237 -165 -168 0
-203 -201 -237 -165 -207 0
-203 -201 -237 -165 -243 0
-203 -201 -237 -240 -168 0
-203 -201 -237 -240 -207 0
-203 -201 -237 -240 -243 0
-203 -201 -237 -168 -207 0
-203 -201 -237 -168 -243 0
-203 -201 -237 -207 -243 0
-203 -201 -165 -240 -168 0
-203 -201 -165 -240 -207 0
-203 -201 -165 -240 -243 0
-203 -201 -165 -168 -207 0
-203 -201 -165 -168 -243 0
-203 -201 -165 -207 -243 0
-203 -201 -240 -168 -207 0
-203 -201 -240 -168 -243 0
-203 -201 -240 -207 -243 0
-203 -201 -168 -207 -243 0
-203 -237 -165 -240 -168 0
-203 -237 -165 -240 -207 0
-203 -237 -165 -240 -243 0
-203 -237 -165 -168 -207 0
-203 -237 -165 -168 -243 0
-203 -237 -165 -207 -243 0
-203 -237 -240 -168 -207 0
-203 -237 -240 -168 -243 0
-203 -237 -240 -207 -243 0
-203 -237 -168 -207 -243 0
-203 -165 -240 -168 -207 0
-203 -165 -240 -168 -243 0
-203 -165 -240 -207 -243 0
-203 -165 -168 -207 -243 0
-203 -240 -168 -207 -243 0
-203 162 201 237 165 240 168 0
-203 162 201 237 165 240 207 0
-203 162 201 237 165 240 243 0
-203 162 201 237 165 168 207 0
-203 162 201 237 165 168 243 0
-203 162 201 237 165 207 243 0
-203 162 201 237 240 168 207 0
-203 162 201 237 240 168 243 0
-203 162 201 237 240 207 243 0
-203 162 201 237 168 207 243 0
-203 162 201 165 240 168 207 0
-203 162 201 165 240 168 243 0
-203 162 201 165 240 207 243 0
-203 162 201 165 168 207 243 0
-203 162 201 240 168 207 243 0
-203 162 237 165 240 168 207 0
-203 162 237 165 240 168 243 0
-203 162 237 165 240 207 243 0
-203 162 237 165 168 207 243 0
-203 162 237 240 168 207 243 0
-203 162 165 240 168 207 243 0
-203 201 237 165 240 168 207 0
-203 201 237 165 240 168 243 0
-203 201 237 165 240 207 243 0
-203 201 237 165 168 207 243 0
-203 201 237 240 168 207 243 0
-203 201 165 240 168 207 243 0
-203 237 165 240 168 207 243 0
-204 -160 -199 -235 -163 -238 0
-204 -160 -199 -235 -163 -166 0
-204 -160 -199 -235 -163 -205 0
-204 -160 -199 -235 -163 -241 0
-204 -160 -199 -235 -238 -166 0
-204 -160 -199 -235 -238 -205 0
-204 -160 -199 -235 -238 -241 0
-204 -160 -199 -235 -166 -205 0
-204 -160 -199 -235 -166 -241 0
-204 -160 -199 -235 -205 -241 0
-204 -160 -199 -163 -238 -166 0
-204 -160 -199 -163 -238 -205 0
-204 -160 -199 -163 -238 -241 0
-204 -160 -199 -163 -166 -205 0
-204 -160 -199 -163 -166 -241 0
-204 -160 -199 -163 -205 -241 0
-204 -160 -199 -238 -166 -205 0
-204 -160 -199 -238 -166 -241 0
-204 -160 -199 -238 -205 -241 0
-204 -160 -199 -166 -205 -241 0
-204 -160 -235 -163 -238 -166 0
-204 -160 -235 -163 -238 -205 0
-204 -160 -235 -163 -238 -241 0
-204 -160 -235 -163 -166 -205 0
-204 -160 -235 -163 -166 -241 0
-204 -160 -235 -163 -205 -241 0
-204 -160 -235 -238 -166 -205 0
-204 -160 -235 -238 -166 -241 0
-204 -160 -235 -238 -205 -241 0
-204 -160 -235 -166 -205 -241 0
-204 -160 -163 -238 -166 -205 0
-204 -160 -163 -238 -166 -241 0
-204 -160 -163 -238 -205 -241 0
-204 -160 -163 -166 -205 -241 0
-204 -160 -238 -166 -205 -241 0
-204 -199 -235 -163 -238 -166 0
-204 -199 -235 -163 -238 -205 0
-204 -199 -235 -163 -238 -241 0
-204 -199 -235 -163 -166 -205 0
-204 -199 -235 -163 -166 -241 0
-204 -199 -235 -163 -205 -241 0
-204 -199 -235 -238 -166 -205 0
-204 -199 -235 -238 -166 -241 0
-204 -199 -235 -238 -205 -241 0
-204 -199 -235 -166 -205 -241 0
-204 -199 -163 -238 -166 -205 0
-204 -199 -163 -238 -166 -241 0
-204 -199 -163 -238 -205 -241 0
-204 -199 -163 -166 -205 -241 0
-204 -199 -238 -166 -205 -241 0
-204 -235 -163 -238 -166 -205 0
-204 -235 -163 -238 -166 -241 0
-204 -235 -163 -238 -205 -241 0
-204 -235 -163 -166 -205 -241 0
-204 -235 -238 -166 -205 -241 0
-204 -163 -238 -166 -205 -241 0
-204 160 199 235 163 238 0
-204 160 199 235 163 166 0
-204 160 199 235 163 205 0
-204 160 199 235 163 241 0
-204 160 199 235 238 166 0
-204 160 199 235 238 205 0
-204 160 199 235 238 241 0
-204 160 199 235 166 205 0
-204 160 199 235 166 241 0
-204 160 199 235 205 241 0
-204 160 199 163 238 166 0
-204 160 199 163 238 205 0
-204 160 199 163 238 241 0
-204 160 199 163 166 205 0
-204 160 199 163 166 241 0
-204 160 199 163 205 241 0
-204 160 199 238 166 205 0
-204 160 199 238 166 241 0
-204 160 199 238 205 241 0
-204 160 199 166 205 241 0
-204 160 235 163 238 166 0
-204 160 235 163 238 205 0
-204 160 235 163 238 241 0
-204 160 235 163 166 205 0
-204 160 235 163 166 241 0
-204 160 235 163 205 241 0
-204 160 235 238 166 205 0
-204 160 235 238 166 241 0
-204 160 235 238 205 241 0
-204 160 235 166 205 241 0
-204 160 163 238 166 205 0
-204 160 163 238 166 241 0
-204 160 163 238 205 241 0
-204 160 163 166 205 241 0
-204 160 238 166 205 241 0
-204 199 235 163 238 166 0
-204 199 235 163 238 205 0
-204 199 235 163 238 241 0
-204 199 235 163 166 205 0
-204 199 235 163 166 241 0
-204 199 235 163 205 241 0
-204 199 235 238 166 205 0
-204 199 235 238 166 241 0
-204 199 235 238 205 241 0
-204 199 235 166 205 241 0
-204 199 163 238 166 205 0
-204 199 163 238 166 241 0
-204 199 163 238 205 241 0
-204 199 163 166 205 241 0
-204 199 238 166 205 241 0
-204 235 163 238 166 205 0
-204 235 163 238 166 241 0
-204 235 163 238 205 241 0
-204 235 163 166 205 241 0
-204 235 238 166 205 241 0
-204 163 238 166 205 241 0
-205 -206 0
-205 -207 0
-206 -207 0
-205 -164 -203 -239 0
-205 -164 -203 -167 0
-205 -164 -203 -242 0
-205 -164 -203 -170 0
-205 -164 -203 -209 0
-205 -164 -239 -167 0
-205 -164 -239 -242 0
-205 -164 -239 -170 0
-205 -164 -239 -209 0
-205 -164 -167 -242 0
-205 -164 -167 -170 0
-205 -164 -167 -209 0
-205 -164 -242 -170 0
-205 -164 -242 -209 0
-205 -164 -170 -209 0
-205 -203 -239 -167 0
-205 -203 -239 -242 0
-205 -203 -239 -170 0
-205 -203 -239 -209 0
-205 -203 -167 -242 0
-205 -203 -167 -170 0
-205 -203 -167 -209 0
-205 -203 -242 -170 0
-205 -203 -242 -209 0
-205 -203 -170 -209 0
-205 -239 -167 -242 0
-205 -239 -167 -170 0
-205 -239 -167 -209 0
-205 -239 -242 -170 0
-205 -239 -242 -209 0
-205 -239 -170 -209 0
-205 -167 -242 -170 0
-205 -167 -242 -209 0
-205 -167 -170 -209 0
-205 -242 -170 -209 0
-205 164 203 239 167 242 170 0
-205 164 203 239 167 242 209 0
-205 164 203 239 167 170 209 0
-205 164 203 239 242 170 209 0
-205 164 203 167 242 170 209 0
-205 164 239 167 242 170 209 0
-205 203 239 167 242 170 209 0
-206 -165 -204 -240 -168 0
-206 -165 -204 -240 -243 0
-206 -165 -204 -240 -171 0
-206 -165 -204 -240 -210 0
-206 -165 -204 -168 -243 0
-206 -165 -204 -168 -171 0
-206 -165 -204 -168 -210 0
-206 -165 -204 -243 -171 0
-206 -165 -204 -243 -210 0
-206 -165 -204 -171 -210 0
-206 -165 -240 -168 -243 0
-206 -165 -240 -168 -171 0
-206 -165 -240 -168 -210 0
-206 -165 -240 -243 -171 0
-206 -165 -240 -243 -210 0
-206 -165 -240 -171 -210 0
-206 -165 -168 -243 -171 0
-206 -165 -168 -243 -210 0
-206 -165 -168 -171 -210 0
-206 -165 -243 -171 -210 0
-206 -204 -240 -168 -243 0
-206 -204 -240 -168 -171 0
-206 -204 -240 -168 -210 0
-206 -204 -240 -243 -171 0
-206 -204 -240 -243 -210 0
-206 -204 -240 -171 -210 0
-206 -204 -168 -243 -171 0
-206 -204 -168 -243 -210 0
-206 -204 -168 -171 -210 0
-206 -204 -243 -171 -210 0
-206 -240 -168 -243 -171 0
-206 -240 -168 -243 -210 0
-206 -240 -168 -171 -210 0
-206 -240 -243 -171 -210 0
-206 -168 -243 -171 -210 0
-206 165 204 240 168 243 0
-206 165 204 240 168 171 0
-206 165 204 240 168 210 0
-206 165 204 240 243 171 0
-206 165 204 240 243 210 0
-206 165 204 240 171 210 0
-206 165 204 168 243 171 0
-206 165 204 168 243 210 0
-206 165 204 168 171 210 0
-206 165 204 243 171 210 0
-206 165 240 168 243 171 0
-206 165 240 168 243 210 0
-206 165 240 168 171 210 0
-206 165 240 243 171 210 0
-206 165 168 243 171 210 0
-206 204 240 168 243 171 0
-206 204 240 168 243 210 0
-206 204 240 168 171 210 0
-206 204 240 243 171 210 0
-206 204 168 243 171 210 0
-206 240 168 243 171 210 0
-207 -163 -202 -238 -166 -241 0
-207 -163 -202 -238 -166 -169 0
-207 -163 -202 -238 -166 -208 0
-207 -163 -202 -238 -241 -169 0
-207 -163 -202 -238 -241 -208 0
-207 -163 -202 -238 -169 -208 0
-207 -163 -202 -166 -241 -169 0
-207 -163 -202 -166 -241 -208 0
-207 -163 -202 -166 -169 -208 0
-207 -163 -202 -241 -169 -208 0
-207 -163 -238 -166 -241 -169 0
-207 -163 -238 -166 -241 -208 0
-207 -163 -238 -166 -169 -208 0
-207 -163 -238 -241 -169 -208 0
-207 -163 -166 -241 -169 -208 0
-207 -202 -238 -166 -241 -169 0
-207 -202 -238 -166 -241 -208 0
-207 -202 -238 -166 -169 -208 0
-207 -202 -238 -241 -169 -208 0
-207 -202 -166 -241 -169 -208 0
-207 -238 -166 -241 -169 -208 0
-207 163 202 238 166 0
-207 163 202 238 241 0
-207 163 202 238 169 0
-207 163 202 238 208 0
-207 163 202 166 241 0
-207 163 202 166 169 0
-207 163 202 166 208 0
-207 163 202 241 169 0
-207 163 202 241 208 0
-207 163 202 169 208 0
-207 163 238 166 241 0
-207 163 238 166 169 0
-207 163 238 166 208 0
-207 163 238 241 169 0
-207 163 238 241 208 0
-207 163 238 169 208 0
-207 163 166 241 169 0
-207 163 166 241 208 0
-207 163 166 169 208 0
-207 163 241 169 208 0
-207 202 238 166 241 0
-207 202 238 166 169 0
-207 202 238 166 208 0
-207 202 238 241 169 0
-207 202 238 241 208 0
-207 202 238 169 208 0
-207 202 166 241 169 0
-207 202 166 241 208 0
-207 202 166 169 208 0
-207 202 241 169 208 0
-207 238 166 241 169 0
-207 238 166 241 208 0
-207 238 166 169 208 0
-207 238 241 169 208 0
-207 166 241 169 208 0
-208 -209 0
-208 -210 0
-209 -210 0
-208 -167 -206 -242 0
-208 -167 -206 -170 0
-208 -167 -206 -173 0
-208 -167 -242 -170 0
-208 -167 -242 -173 0
-208 -167 -170 -173 0
-208 -206 -242 -170 0
-208 -206 -242 -173 0
-208 -206 -170 -173 0
-208 -242 -170 -173 0
-208 167 206 242 170 0
-208 167 206 242 173 0
-208 167 206 170 173 0
-208 167 242 170 173 0
-208 206 242 170 173 0
-209 -168 -207 -243 -171 0
-209 -168 -207 -243 -174 0
-209 -168 -207 -171 -174 0
-209 -168 -243 -171 -174 0
-209 -207 -243 -171 -174 0
-209 168 207 243 0
-209 168 207 171 0
-209 168 207 174 0
-209 168 243 171 0
-209 168 243 174 0
-209 168 171 174 0
-209 207 243 171 0
-209 207 243 174 0
-209 207 171 174 0
-209 243 171 174 0
-210 -166 -205 -241 -169 -172 0
-210 166 205 0
-210 166 241 0
-210 166 169 0
-210 166 172 0
-210 205 241 0
-210 205 169 0
-210 205 172 0
-210 241 169 0
-210 241 172 0
-210 169 172 0
-211 -212 0
-211 -213 0
-212 -213 0
-214 -215 0
-214 -216 0
-215 -216 0
-214 -176 -212 -245 0
-214 -176 -212 -179 0
-214 -176 -212 -248 0
-214 -176 -212 -182 0
-214 -176 -212 -218 0
-214 -176 -212 -251 0
-214 -176 -245 -179 0
-214 -176 -245 -248 0
-214 -176 -245 -182 0
-214 -176 -245 -218 0
-214 -176 -245 -251 0
-214 -176 -179 -248 0
-214 -176 -179 -182 0
-214 -176 -179 -218 0
-214 -176 -179 -251 0
-214 -176 -248 -182 0
-214 -176 -248 -218 0
-214 -176 -248 -251 0
-214 -176 -182 -218 0
-214 -176 -182 -251 0
-214 -176 -218 -251 0
-214 -212 -245 -179 0
-214 -212 -245 -248 0
-214 -212 -245 -182 0
-214 -212 -245 -218 0
-214 -212 -245 -251 0
-214 -212 -179 -248 0
-214 -212 -179 -182 0
-214 -212 -179 -218 0
-214 -212 -179 -251 0
-214 -212 -248 -182 0
-214 -212 -248 -218 0
-214 -212 -248 -251 0
-214 -212 -182 -218 0
-214 -212 -182 -251 0
-214 -212 -218 -251 0
-214 -245 -179 -248 0
-214 -245 -179 -182 0
-214 -245 -179 -218 0
-214 -245 -179 -251 0
-214 -245 -248 -182 0
-214 -245 -248 -218 0
-214 -245 -248 -251 0
-214 -245 -182 -218 0
-214 -245 -182 -251 0
-214 -245 -218 -251 0
-214 -179 -248 -182 0
-214 -179 -248 -218 0
-214 -179 -248 -251 0
-214 -179 -182 -218 0
-214 -179 -182 -251 0
-214 -179 -218 -251 0
-214 -248 -182 -218 0
-214 -248 -182 -251 0
-214 -248 -218 -251 0
-214 -182 -218 -251 0
-214 176 212 245 179 248 182 218 0
-214 176 212 245 179 248 182 251 0
-214 176 212 245 179 248 218 251 0
-214 176 212 245 179 182 218 251 0
-214 176 212 245 248 182 218 251 0
-214 176 212 179 248 182 218 251 0
-214 176 245 179 248 182 218 251 0
-214 212 245 179 248 182 218 251 0
-215 -177 -213 -246 -180 0
-215 -177 -213 -246 -249 0
-215 -177 -213 -246 -183 0
-215 -177 -213 -246 -219 0
-215 -177 -213 -246 -252 0
-215 -177 -213 -180 -249 0
-215 -177 -213 -180 -183 0
-215 -177 -213 -180 -219 0
-215 -177 -213 -180 -252 0
-215 -177 -213 -249 -183 0
-215 -177 -213 -249 -219 0
-215 -177 -213 -249 -252 0
-215 -177 -213 -183 -219 0
-215 -177 -213 -183 -252 0
-215 -177 -213 -219 -252 0
-215 -177 -246 -180 -249 0
-215 -177 -246 -180 -183 0
-215 -177 -246 -180 -219 0
-215 -177 -246 -180 -252 0
-215 -177 -246 -249 -183 0
-215 -177 -246 -249 -219 0
-215 -177 -246 -249 -252 0
-215 -177 -246 -183 -219 0
-215 -177 -246 -183 -252 0
-215 -177 -246 -219 -252 0
-215 -177 -180 -249 -183 0
-215 -177 -180 -249 -219 0
-215 -177 -180 -249 -252 0
-215 -177 -180 -183 -219 0
-215 -177 -180 -183 -252 0
-215 -177 -180 -219 -252 0
-215 -177 -249 -183 -219 0
-215 -177 -249 -183 -252 0
-215 -177 -249 -219 -252 0
-215 -177 -183 -219 -252 0
-215 -213 -246 -180 -249 0
-215 -213 -246 -180 -183 0
-215 -213 -246 -180 -219 0
-215 -213 -246 -180 -252 0
-215 -213 -246 -249 -183 0
-215 -213 -246 -249 -219 0
-215 -213 -246 -249 -252 0
-215 -213 -246 -183 -219 0
-215 -213 -246 -183 -252 0
-215 -213 -246 -219 -252 0
-215 -213 -180 -249 -183 0
-215 -213 -180 -249 -219 0
-215 -213 -180 -249 -252 0
-215 -213 -180 -183 -219 0
-215 -213 -180 -183 -252 0
-215 -213 -180 -219 -252 0
-215 -213 -249 -183 -219 0
-215 -213 -249 -183 -252 0
-215 -213 -249 -219 -252 0
-215 -213 -183 -219 -252 0
-215 -246 -180 -249 -183 0
-215 -246 -180 -249 -219 0
-215 -246 -180 -249 -252 0
-215 -246 -180 -183 -219 0
-215 -246 -180 -183 -252 0
-215 -246 -180 -219 -252 0
-215 -246 -249 -183 -219 0
-215 -246 -249 -183 -252 0
-215 -246 -249 -219 -252 0
-215 -246 -183 -219 -252 0
-215 -180 -249 -183 -219 0
-215 -180 -249 -183 -252 0
-215 -180 -249 -219 -252 0
-215 -180 -183 -219 -252 0
-215 -249 -183 -219 -252 0
-215 177 213 246 180 249 183 0
-215 177 213 246 180 249 219 0
-215 177 213 246 180 249 252 0
-215 177 213 246 180 183 219 0
-215 177 213 246 180 183 252 0
-215 177 213 246 180 219 252 0
-215 177 213 246 249 183 219 0
-215 177 213 246 249 183 252 0
-215 177 213 246 249 219 252 0
-215 177 213 246 183 219 252 0
-215 177 213 180 249 183 219 0
-215 177 213 180 249 183 252 0
-215 177 213 180 249 219 252 0
-215 177 213 180 183 219 252 0
-215 177 213 249 183 219 252 0
-215 177 246 180 249 183 219 0
-215 177 246 180 249 183 252 0
-215 177 246 180 249 219 252 0
-215 177 246 180 183 219 252 0
-215 177 246 249 183 219 252 0
-215 177 180 249 183 219 252 0
-215 213 246 180 249 183 219 0
-215 213 246 180 249 183 252 0
-215 213 246 180 249 219 252 0
-215 213 246 180 183 219 252 0
-215 213 246 249 183 219 252 0
-215 213 180 249 183 219 252 0
-215 246 180 249 183 219 252 0
-216 -175 -211 -244 -178 -247 0
-216 -175 -211 -244 -178 -181 0
-216 -175 -211 -244 -178 -217 0
-216 -175 -211 -244 -178 -250 0
-216 -175 -211 -244 -247 -181 0
-216 -175 -211 -244 -247 -217 0
-216 -175 -211 -244 -247 -250 0
-216 -175 -211 -244 -181 -217 0
-216 -175 -211 -244 -181 -250 0
-216 -175 -211 -244 -217 -250 0
-216 -175 -211 -178 -247 -181 0
-216 -175 -211 -178 -247 -217 0
-216 -175 -211 -178 -247 -250 0
-216 -175 -211 -178 -181 -217 0
-216 -175 -211 -178 -181 -250 0
-216 -175 -211 -178 -217 -250 0
-216 -175 -211 -247 -181 -217 0
-216 -175 -211 -247 -181 -250 0
-216 -175 -211 -247 -217 -250 0
-216 -175 -211 -181 -217 -250 0
-216 -175 -244 -178 -247 -181 0
-216 -175 -244 -178 -247 -217 0
-216 -175 -244 -178 -247 -250 0
-216 -175 -244 -178 -181 -217 0
-216 -175 -244 -178 -181 -250 0
-216 -175 -244 -178 -217 -250 0
-216 -175 -244 -247 -181 -217 0
-216 -175 -244 -247 -181 -250 0
-216 -175 -244 -247 -217 -250 0
-216 -175 -244 -181 -217 -250 0
-216 -175 -178 -247 -181 -217 0
-216 -175 -178 -247 -181 -250 0
-216 -175 -178 -247 -217 -250 0
-216 -175 -178 -181 -217 -250 0
-216 -175 -247 -181 -217 -250 0
-216 -211 -244 -178 -247 -181 0
-216 -211 -244 -178 -247 -217 0
-216 -211 -244 -178 -247 -250 0
-216 -211 -244 -178 -181 -217 0
-216 -211 -244 -178 -181 -250 0
-216 -211 -244 -178 -217 -250 0
-216 -211 -244 -247 -181 -217 0
-216 -211 -244 -247 -181 -250 0
-216 -211 -244 -247 -217 -250 0
-216 -211 -244 -181 -217 -250 0
-216 -211 -178 -247 -181 -217 0
-216 -211 -178 -247 -181 -250 0
-216 -211 -178 -247 -217 -250 0
-216 -211 -178 -181 -217 -250 0
-216 -211 -247 -181 -217 -250 0
-216 -244 -178 -247 -181 -217 0
-216 -244 -178 -247 -181 -250 0
-216 -244 -178 -247 -217 -250 0
-216 -244 -178 -181 -217 -250 0
-216 -244 -247 -181 -217 -250 0
-216 -178 -247 -181 -217 -250 0
-216 175 211 244 178 247 0
-216 175 211 244 178 181 0
-216 175 211 244 178 217 0
-216 175 211 244 178 250 0
-216 175 211 244 247 181 0
-216 175 211 244 247 217 0
-216 175 211 244 247 250 0
-216 175 211 244 181 217 0
-216 175 211 244 181 250 0
-216 175 211 244 217 250 0
-216 175 211 178 247 181 0
-216 175 211 178 247 217 0
-216 175 211 178 247 250 0
-216 175 211 178 181 217 0
-216 175 211 178 181 250 0
-216 175 211 178 217 250 0
-216 175 211 247 181 217 0
-216 175 211 247 181 250 0
-216 175 211 247 217 250 0
-216 175 211 181 217 250 0
-216 175 244 178 247 181 0
-216 175 244 178 247 217 0
-216 175 244 178 247 250 0
-216 175 244 178 181 217 0
-216 175 244 178 181 250 0
-216 175 244 178 217 250 0
-216 175 244 247 181 217 0
-216 175 244 247 181 250 0
-216 175 244 247 217 250 0
-216 175 244 181 217 250 0
-216 175 178 247 181 217 0
-216 175 178 247 181 250 0
-216 175 178 247 217 250 0
-216 175 178 181 217 250 0
-216 175 247 181 217 250 0
-216 211 244 178 247 181 0
-216 211 244 178 247 217 0
-216 211 244 178 247 250 0
-216 211 244 178 181 217 0
-216 211 244 178 181 250 0
-216 211 244 178 217 250 0
-216 211 244 247 181 217 0
-216 211 244 247 181 250 0
-216 211 244 247 217 250 0
-216 211 244 181 217 250 0
-216 211 178 247 181 217 0
-216 211 178 247 181 250 0
-216 211 178 247 217 250 0
-216 211 178 181 217 250 0
-216 211 247 181 217 250 0
-216 244 178 247 181 217 0
-216 244 178 247 181 250 0
-216 244 178 247 217 250 0
-216 244 178 181 217 250 0
-216 244 247 181 217 250 0
-216 178 247 181 217 250 0
-217 -218 0
-217 -219 0
-218 -219 0
-217 -179 -215 -248 0
-217 -179 -215 -182 0
-217 -179 -215 -251 0
-217 -179 -215 -185 0
-217 -179 -215 -221 0
-217 -179 -215 -254 0
-217 -179 -248 -182 0
-217 -179 -248 -251 0
-217 -179 -248 -185 0
-217 -179 -248 -221 0
-217 -179 -248 -254 0
-217 -179 -182 -251 0
-217 -179 -182 -185 0
-217 -179 -182 -221 0
-217 -179 -182 -254 0
-217 -179 -251 -185 0
-217 -179 -251 -221 0
-217 -179 -251 -254 0
-217 -179 -185 -221 0
-217 -179 -185 -254 0
-217 -179 -221 -254 0
-217 -215 -248 -182 0
-217 -215 -248 -251 0
-217 -215 -248 -185 0
-217 -215 -248 -221 0
-217 -215 -248 -254 0
-217 -215 -182 -251 0
-217 -215 -182 -185 0
-217 -215 -182 -221 0
-217 -215 -182 -254 0
-217 -215 -251 -185 0
-217 -215 -251 -221 0
-217 -215 -251 -254 0
-217 -215 -185 -221 0
-217 -215 -185 -254 0
-217 -215 -221 -254 0
-217 -248 -182 -251 0
-217 -248 -182 -185 0
-217 -248 -182 -221 0
-217 -248 -182 -254 0
-217 -248 -251 -185 0
-217 -248 -251 -221 0
-217 -248 -251 -254 0
-217 -248 -185 -221 0
-217 -248 -185 -254 0
-217 -248 -221 -254 0
-217 -182 -251 -185 0
-217 -182 -251 -221 0
-217 -182 -251 -254 0
-217 -182 -185 -221 0
-217 -182 -185 -254 0
-217 -182 -221 -254 0
-217 -251 -185 -221 0
-217 -251 -185 -254 0
-217 -251 -221 -254 0
-217 -185 -221 -254 0
-217 179 215 248 182 251 185 221 0
-217 179 215 248 182 251 185 254 0
-217 179 215 248 182 251 221 254 0
-217 179 215 248 182 185 221 254 0
-217 179 215 248 251 185 221 254 0
-217 179 215 182 251 185 221 254 0
-217 179 248 182 251 185 221 254 0
-217 215 248 182 251 185 221 254 0
-218 -180 -216 -249 -183 0
-218 -180 -216 -249 -252 0
-218 -180 -216 -249 -186 0
-218 -180 -216 -249 -222 0
-218 -180 -216 -249 -255 0
-218 -180 -216 -183 -252 0
-218 -180 -216 -183 -186 0
-218 -180 -216 -183 -222 0
-218 -180 -216 -183 -255 0
-218 -180 -216 -252 -186 0
-218 -180 -216 -252 -222 0
-218 -180 -216 -252 -255 0
-218 -180 -216 -186 -222 0
-218 -180 -216 -186 -255 0
-218 -180 -216 -222 -255 0
-218 -180 -249 -183 -252 0
-218 -180 -249 -183 -186 0
-218 -180 -249 -183 -222 0
-218 -180 -249 -183 -255 0
-218 -180 -249 -252 -186 0
-218 -180 -249 -252 -222 0
-218 -180 -249 -252 -255 0
-218 -180 -249 -186 -222 0
-218 -180 -249 -186 -255 0
-218 -180 -249 -222 -255 0
-218 -180 -183 -252 -186 0
-218 -180 -183 -252 -222 0
-218 -180 -183 -252 -255 0
-218 -180 -183 -186 -222 0
-218 -180 -183 -186 -255 0
-218 -180 -183 -222 -255 0
-218 -180 -252 -186 -222 0
-218 -180 -252 -186 -255 0
-218 -180 -252 -222 -255 0
-218 -180 -186 -222 -255 0
-218 -216 -249 -183 -252 0
-218 -216 -249 -183 -186 0
-218 -216 -249 -183 -222 0
-218 -216 -249 -183 -255 0
-218 -216 -249 -252 -186 0
-218 -216 -249 -252 -222 0
-218 -216 -249 -252 -255 0
-218 -216 -249 -186 -222 0
-218 -216 -249 -186 -255 0
-218 -216 -249 -222 -255 0
-218 -216 -183 -252 -186 0
-218 -216 -183 -252 -222 0
-218 -216 -183 -252 -255 0
-218 -216 -183 -186 -222 0
-218 -216 -183 -186 -255 0
-218 -216 -183 -222 -255 0
-218 -216 -252 -186 -222 0
-218 -216 -252 -186 -255 0
-218 -216 -252 -222 -255 0
-218 -216 -186 -222 -255 0
-218 -249 -183 -252 -186 0
-218 -249 -183 -252 -222 0
-218 -249 -183 -252 -255 0
-218 -249 -183 -186 -222 0
-218 -249 -183 -186 -255 0
-218 -249 -183 -222 -255 0
-218 -249 -252 -186 -222 0
-218 -249 -252 -186 -255 0
-218 -249 -252 -222 -255 0
-218 -249 -186 -222 -255 0
-218 -183 -252 -186 -222 0
-218 -183 -252 -186 -255 0
-218 -183 -252 -222 -255 0
-218 -183 -186 -222 -255 0
-218 -252 -186 -222 -255 0
-218 180 216 249 183 252 186 0
-218 180 216 249 183 252 222 0
-218 180 216 249 183 252 255 0
-218 180 216 249 183 186 222 0
-218 180 216 249 183 186 255 0
-218 180 216 249 183 222 255 0
-218 180 216 249 252 186 222 0
-218 180 216 249 252 186 255 0
-218 180 216 249 252 222 255 0
-218 180 216 249 186 222 255 0
-218 180 216 183 252 186 222 0
-218 180 216 183 252 186 255 0
-218 180 216 183 252 222 255 0
-218 180 216 183 186 222 255 0
-218 180 216 252 186 222 255 0
-218 180 249 183 252 186 222 0
-218 180 249 183 252 186 255 0
-218 180 249 183 252 222 255 0
-218 180 249 183 186 222 255 0
-218 180 249 252 186 222 255 0
-218 180 183 252 186 222 255 0
-218 216 249 183 252 186 222 0
-218 216 249 183 252 186 255 0
-218 216 249 183 252 222 255 0
-218 216 249 183 186 222 255 0
-218 216 249 252 186 222 255 0
-218 216 183 252 186 222 255 0
-218 249 183 252 186 222 255 0
-219 -178 -214 -247 -181 -250 0
-219 -178 -214 -247 -181 -184 0
-219 -178 -214 -247 -181 -220 0
-219 -178 -214 -247 -181 -253 0
-219 -178 -214 -247 -250 -184 0
-219 -178 -214 -247 -250 -220 0
-219 -178 -214 -247 -250 -253 0
-219 -178 -214 -247 -184 -220 0
-219 -178 -214 -247 -184 -253 0
-219 -178 -214 -247 -220 -253 0
-219 -178 -214 -181 -250 -184 0
-219 -178 -214 -181 -250 -220 0
-219 -178 -214 -181 -250 -253 0
-219 -178 -214 -181 -184 -220 0
-219 -178 -214 -181 -184 -253 0
-219 -178 -214 -181 -220 -253 0
-219 -178 -214 -250 -184 -220 0
-219 -178 -214 -250 -184 -253 0
-219 -178 -214 -250 -220 -253 0
-219 -178 -214 -184 -220 -253 0
-219 -178 -247 -181 -250 -184 0
-219 -178 -247 -181 -250 -220 0
-219 -178 -247 -181 -250 -253 0
-219 -178 -247 -181 -184 -220 0
-219 -178 -247 -181 -184 -253 0
-219 -178 -247 -181 -220 -253 0
-219 -178 -247 -250 -184 -220 0
-219 -178 -247 -250 -184 -253 0
-219 -178 -247 -250 -220 -253 0
-219 -178 -247 -184 -220 -253 0
-219 -178 -181 -250 -184 -220 0
-219 -178 -181 -250 -184 -253 0
-219 -178 -181 -250 -220 -253 0
-219 -178 -181 -184 -220 -253 0
-219 -178 -250 -184 -220 -253 0
-219 -214 -247 -181 -250 -184 0
-219 -214 -247 -181 -250 -220 0
-219 -214 -247 -181 -250 -253 0
-219 -214 -247 -181 -184 -220 0
-219 -214 -247 -181 -184 -253 0
-219 -214 -247 -181 -220 -253 0
-219 -214 -247 -250 -184 -220 0
-219 -214 -247 -250 -184 -253 0
-219 -214 -247 -250 -220 -253 0
-219 -214 -247 -184 -220 -253 0
-219 -214 -181 -250 -184 -220 0
-219 -214 -181 -250 -184 -253 0
-219 -214 -181 -250 -220 -253 0
-219 -214 -181 -184 -220 -253 0
-219 -214 -250 -184 -220 -253 0
-219 -247 -181 -250 -184 -220 0
-219 -247 -181 -250 -184 -253 0
-219 -247 -181 -250 -220 -253 0
-219 -247 -181 -184 -220 -253 0
-219 -247 -250 -184 -220 -253 0
-219 -181 -250 -184 -220 -253 0
-219 178 214 247 181 250 0
-219 178 214 247 181 184 0
-219 178 214 247 181 220 0
-219 178 214 247 181 253 0
-219 178 214 247 250 184 0
-219 178 214 247 250 220 0
-219 178 214 247 250 253 0
-219 178 214 247 184 220 0
-219 178 214 247 184 253 0
-219 178 214 247 220 253 0
-219 178 214 181 250 184 0
-219 178 214 181 250 220 0
-219 178 214 181 250 253 0
-219 178 214 181 184 220 0
-219 178 214 181 184 253 0
-219 178 214 181 220 253 0
-219 178 214 250 184 220 0
-219 178 214 250 184 253 0
-219 178 214 250 220 253 0
-219 178 214 184 220 253 0
-219 178 247 181 250 184 0
-219 178 247 181 250 220 0
-219 178 247 181 250 253 0
-219 178 247 181 184 220 0
-219 178 247 181 184 253 0
-219 178 247 181 220 253 0
-219 178 247 250 184 220 0
-219 178 247 250 184 253 0
-219 178 247 250 220 253 0
-219 178 247 184 220 253 0
-219 178 181 250 184 220 0
-219 178 181 250 184 253 0
-219 178 181 250 220 253 0
-219 178 181 184 220 253 0
-219 178 250 184 220 253 0
-219 214 247 181 250 184 0
-219 214 247 181 250 220 0
-219 214 247 181 250 253 0
-219 214 247 181 184 220 0
-219 214 247 181 184 253 0
-219 214 247 181 220 253 0
-219 214 247 250 184 220 0
-219 214 247 250 184 253 0
-219 214 247 250 220 253 0
-219 214 247 184 220 253 0
-219 214 181 250 184 220 0
-219 214 181 250 184 253 0
-219 214 181 250 220 253 0
-219 214 181 184 220 253 0
-219 214 250 184 220 253 0
-219 247 181 250 184 220 0
-219 247 181 250 184 253 0
-219 247 181 250 220 253 0
-219 247 181 184 220 253 0
-219 247 250 184 220 253 0
-219 181 250 184 220 253 0
-220 -221 0
-220 -222 0
-221 -222 0
-220 -182 -218 -251 0
-220 -182 -218 -185 0
-220 -182 -218 -254 0
-220 -182 -218 -188 0
-220 -182 -218 -224 0
-220 -182 -218 -257 0
-220 -182 -251 -185 0
-220 -182 -251 -254 0
-220 -182 -251 -188 0
-220 -182 -251 -224 0
-220 -182 -251 -257 0
-220 -182 -185 -254 0
-220 -182 -185 -188 0
-220 -182 -185 -224 0
-220 -182 -185 -257 0
-220 -182 -254 -188 0
-220 -182 -254 -224 0
-220 -182 -254 -257 0
-220 -182 -188 -224 0
-220 -182 -188 -257 0
-220 -182 -224 -257 0
-220 -218 -251 -185 0
-220 -218 -251 -254 0
-220 -218 -251 -188 0
-220 -218 -251 -224 0
-220 -218 -251 -257 0
-220 -218 -185 -254 0
-220 -218 -185 -188 0
-220 -218 -185 -224 0
-220 -218 -185 -257 0
-220 -218 -254 -188 0
-220 -218 -254 -224 0
-220 -218 -254 -257 0
-220 -218 -188 -224 0
-220 -218 -188 -257 0
-220 -218 -224 -257 0
-220 -251 -185 -254 0
-220 -251 -185 -188 0
-220 -251 -185 -224 0
-220 -251 -185 -257 0
-220 -251 -254 -188 0
-220 -251 -254 -224 0
-220 -251 -254 -257 0
-220 -251 -188 -224 0
-220 -251 -188 -257 0
-220 -251 -224 -257 0
-220 -185 -254 -188 0
-220 -185 -254 -224 0
-220 -185 -254 -257 0
-220 -185 -188 -224 0
-220 -185 -188 -257 0
-220 -185 -224 -257 0
-220 -254 -188 -224 0
-220 -254 -188 -257 0
-220 -254 -224 -257 0
-220 -188 -224 -257 0
-220 182 218 251 185 254 188 224 0
-220 182 218 251 185 254 188 257 0
-220 182 218 251 185 254 224 257 0
-220 182 218 251 185 188 224 257 0
-220 182 218 251 254 188 224 257 0
-220 182 218 185 254 188 224 257 0
-220 182 251 185 254 188 224 257 0
-220 218 251 185 254 188 224 257 0
-221 -183 -219 -252 -186 0
-221 -183 -219 -252 -255 0
-221 -183 -219 -252 -189 0
-221 -183 -219 -252 -225 0
-221 -183 -219 -252 -258 0
-221 -183 -219 -186 -255 0
-221 -183 -219 -186 -189 0
-221 -183 -219 -186 -225 0
-221 -183 -219 -186 -258 0
-221 -183 -219 -255 -189 0
-221 -183 -219 -255 -225 0
-221 -183 -219 -255 -258 0
-221 -183 -219 -189 -225 0
-221 -183 -219 -189 -258 0
-221 -183 -219 -225 -258 0
-221 -183 -252 -186 -255 0
-221 -183 -252 -186 -189 0
-221 -183 -252 -186 -225 0
-221 -183 -252 -186 -258 0
-221 -183 -252 -255 -189 0
-221 -183 -252 -255 -225 0
-221 -183 -252 -255 -258 0
-221 -183 -252 -189 -225 0
-221 -183 -252 -189 -258 0
-221 -183 -252 -225 -258 0
-221 -183 -186 -255 -189 0
-221 -183 -186 -255 -225 0
-221 -183 -186 -255 -258 0
-221 -183 -186 -189 -225 0
-221 -183 -186 -189 -258 0
-221 -183 -186 -225 -258 0
-221 -183 -255 -189 -225 0
-221 -183 -255 -189 -258 0
-221 -183 -255 -225 -258 0
-221 -183 -189 -225 -258 0
-221 -219 -252 -186 -255 0
-221 -219 -252 -186 -189 0
-221 -219 -252 -186 -225 0
-221 -219 -252 -186 -258 0
-221 -219 -252 -255 -189 0
-221 -219 -252 -255 -225 0
-221 -219 -252 -255 -258 0
-221 -219 -252 -189 -225 0
-221 -219 -252 -189 -258 0
-221 -219 -252 -225 -258 0
-221 -219 -186 -255 -189 0
-221 -219 -186 -255 -225 0
-221 -219 -186 -255 -258 0
-221 -219 -186 -189 -225 0
-221 -219 -186 -189 -258 0
-221 -219 -186 -225 -258 0
-221 -219 -255 -189 -225 0
-221 -219 -255 -189 -258 0
-221 -219 -255 -225 -258 0
-221 -219 -189 -225 -258 0
-221 -252 -186 -255 -189 0
-221 -252 -186 -255 -225 0
-221 -252 -186 -255 -258 0
-221 -252 -186 -189 -225 0
-221 -252 -186 -189 -258 0
-221 -252 -186 -225 -258 0
-221 -252 -255 -189 -225 0
-221 -252 -255 -189 -258 0
-221 -252 -255 -225 -258 0
-221 -252 -189 -225 -258 0
-221 -186 -255 -189 -225 0
-221 -186 -255 -189 -258 0
-221 -186 -255 -225 -258 0
-221 -186 -189 -225 -258 0
-221 -255 -189 -225 -258 0
-221 183 219 252 186 255 189 0
-221 183 219 252 186 255 225 0
-221 183 219 252 186 255 258 0
-221 183 219 252 186 189 225 0
-221 183 219 252 186 189 258 0
-221 183 219 252 186 225 258 0
-221 183 219 252 255 189 225 0
-221 183 219 252 255 189 258 0
-221 183 219 252 255 225 258 0
-221 183 219 252 189 225 258 0
-221 183 219 186 255 189 225 0
-221 183 219 186 255 189 258 0
-221 183 219 186 255 225 258 0
-221 183 219 186 189 225 258 0
-221 183 219 255 189 225 258 0
-221 183 252 186 255 189 225 0
-221 183 252 186 255 189 258 0
-221 183 252 186 255 225 258 0
-221 183 252 186 189 225 258 0
-221 183 252 255 189 225 258 0
-221 183 186 255 189 225 258 0
-221 219 252 186 255 189 225 0
-221 219 252 186 255 189 258 0
-221 219 252 186 255 225 258 0
-221 219 252 186 189 225 258 0
-221 219 252 255 189 225 258 0
-221 219 186 255 189 225 258 0
-221 252 186 255 189 225 258 0
-222 -181 -217 -250 -184 -253 0
-222 -181 -217 -250 -184 -187 0
-222 -181 -217 -250 -184 -223 0
-222 -181 -217 -250 -184 -256 0
-222 -181 -217 -250 -253 -187 0
-222 -181 -217 -250 -253 -223 0
-222 -181 -217 -250 -253 -256 0
-222 -181 -217 -250 -187 -223 0
-222 -181 -217 -250 -187 -256 0
-222 -181 -217 -250 -223 -256 0
-222 -181 -217 -184 -253 -187 0
-222 -181 -217 -184 -253 -223 0
-222 -181 -217 -184 -253 -256 0
-222 -181 -217 -184 -187 -223 0
-222 -181 -217 -184 -187 -256 0
-222 -181 -217 -184 -223 -256 0
-222 -181 -217 -253 -187 -223 0
-222 -181 -217 -253 -187 -256 0
-222 -181 -217 -253 -223 -256 0
-222 -181 -217 -187 -223 -256 0
-222 -181 -250 -184 -253 -187 0
-222 -181 -250 -184 -253 -223 0
-222 -181 -250 -184 -253 -256 0
-222 -181 -250 -184 -187 -223 0
-222 -181 -250 -184 -187 -256 0
-222 -181 -250 -184 -223 -256 0
-222 -181 -250 -253 -187 -223 0
-222 -181 -250 -253 -187 -256 0
-222 -181 -250 -253 -223 -256 0
-222 -181 -250 -187 -223 -256 0
-222 -181 -184 -253 -187 -223 0
-222 -181 -184 -253 -187 -256 0
-222 -181 -184 -253 -223 -256 0
-222 -181 -184 -187 -223 -256 0
-222 -181 -253 -187 -223 -256 0
-222 -217 -250 -184 -253 -187 0
-222 -217 -250 -184 -253 -223 0
-222 -217 -250 -184 -253 -256 0
-222 -217 -250 -184 -187 -223 0
-222 -217 -250 -184 -187 -256 0
-222 -217 -250 -184 -223 -256 0
-222 -217 -250 -253 -187 -223 0
-222 -217 -250 -253 -187 -256 0
-222 -217 -250 -253 -223 -256 0
-222 -217 -250 -187 -223 -256 0
-222 -217 -184 -253 -187 -223 0
-222 -217 -184 -253 -187 -256 0
-222 -217 -184 -253 -223 -256 0
-222 -217 -184 -187 -223 -256 0
-222 -217 -253 -187 -223 -256 0
-222 -250 -184 -253 -187 -223 0
-222 -250 -184 -253 -187 -256 0
-222 -250 -184 -253 -223 -256 0
-222 -250 -184 -187 -223 -256 0
-222 -250 -253 -187 -223 -256 0
-222 -184 -253 -187 -223 -256 0
-222 181 217 250 184 253 0
-222 181 217 250 184 187 0
-222 181 217 250 184 223 0
-222 181 217 250 184 256 0
-222 181 217 250 253 187 0
-222 181 217 250 253 223 0
-222 181 217 250 253 256 0
-222 181 217 250 187 223 0
-222 181 217 250 187 256 0
-222 181 217 250 223 256 0
-222 181 217 184 253 187 0
-222 181 217 184 253 223 0
-222 181 217 184 253 256 0
-222 181 217 184 187 223 0
-222 181 217 184 187 256 0
-222 181 217 184 223 256 0
-222 181 217 253 187 223 0
-222 181 217 253 187 256 0
-222 181 217 253 223 256 0
-222 181 217 187 223 256 0
-222 181 250 184 253 187 0
-222 181 250 184 253 223 0
-222 181 250 184 253 256 0
-222 181 250 184 187 223 0
-222 181 250 184 187 256 0
-222 181 250 184 223 256 0
-222 181 250 253 187 223 0
-222 181 250 253 187 256 0
-222 181 250 253 223 256 0
-222 181 250 187 223 256 0
-222 181 184 253 187 223 0
-222 181 184 253 187 256 0
-222 181 184 253 223 256 0
-222 181 184 187 223 256 0
-222 181 253 187 223 256 0
-222 217 250 184 253 187 0
-222 217 250 184 253 223 0
-222 217 250 184 253 256 0
-222 217 250 184 187 223 0
-222 217 250 184 187 256 0
-222 217 250 184 223 256 0
-222 217 250 253 187 223 0
-222 217 250 253 187 256 0
-222 217 250 253 223 256 0
-222 217 250 187 223 256 0
-222 217 184 253 187 223 0
-222 217 184 253 187 256 0
-222 217 184 253 223 256 0
-222 217 184 187 223 256 0
-222 217 253 187 223 256 0
-222 250 184 253 187 223 0
-222 250 184 253 187 256 0
-222 250 184 253 223 256 0
-222 250 184 187 223 256 0
-222 250 253 187 223 256 0
-222 184 253 187 223 256 0
-223 -224 0
-223 -225 0
-224 -225 0
-223 -185 -221 -254 0
-223 -185 -221 -188 0
-223 -185 -221 -257 0
-223 -185 -221 -191 0
-223 -185 -221 -227 0
-223 -185 -221 -260 0
-223 -185 -254 -188 0
-223 -185 -254 -257 0
-223 -185 -254 -191 0
-223 -185 -254 -227 0
-223 -185 -254 -260 0
-223 -185 -188 -257 0
-223 -185 -188 -191 0
-223 -185 -188 -227 0
-223 -185 -188 -260 0
-223 -185 -257 -191 0
-223 -185 -257 -227 0
-223 -185 -257 -260 0
-223 -185 -191 -227 0
-223 -185 -191 -260 0
-223 -185 -227 -260 0
-223 -221 -254 -188 0
-223 -221 -254 -257 0
-223 -221 -254 -191 0
-223 -221 -254 -227 0
-223 -221 -254 -260 0
-223 -221 -188 -257 0
-223 -221 -188 -191 0
-223 -221 -188 -227 0
-223 -221 -188 -260 0
-223 -221 -257 -191 0
-223 -221 -257 -227 0
-223 -221 -257 -260 0
-223 -221 -191 -227 0
-223 -221 -191 -260 0
-223 -221 -227 -260 0
-223 -254 -188 -257 0
-223 -254 -188 -191 0
-223 -254 -188 -227 0
-223 -254 -188 -260 0
-223 -254 -257 -191 0
-223 -254 -257 -227 0
-223 -254 -257 -260 0
-223 -254 -191 -227 0
-223 -254 -191 -260 0
-223 -254 -227 -260 0
-223 -188 -257 -191 0
-223 -188 -257 -227 0
-223 -188 -257 -260 0
-223 -188 -191 -227 0
-223 -188 -191 -260 0
-223 -188 -227 -260 0
-223 -257 -191 -227 0
-223 -257 -191 -260 0
-223 -257 -227 -260 0
-223 -191 -227 -260 0
-223 185 221 254 188 257 191 227 0
-223 185 221 254 188 257 191 260 0
-223 185 221 254 188 257 227 260 0
-223 185 221 254 188 191 227 260 0
-223 185 221 254 257 191 227 260 0
-223 185 221 188 257 191 227 260 0
-223 185 254 188 257 191 227 260 0
-223 221 254 188 257 191 227 260 0
-224 -186 -222 -255 -189 0
-224 -186 -222 -255 -258 0
-224 -186 -222 -255 -192 0
-224 -186 -222 -255 -228 0
-224 -186 -222 -255 -261 0
-224 -186 -222 -189 -258 0
-224 -186 -222 -189 -192 0
-224 -186 -222 -189 -228 0
-224 -186 -222 -189 -261 0
-224 -186 -222 -258 -192 0
-224 -186 -222 -258 -228 0
-224 -186 -222 -258 -261 0
-224 -186 -222 -192 -228 0
-224 -186 -222 -192 -261 0
-224 -186 -222 -228 -261 0
-224 -186 -255 -189 -258 0
-224 -186 -255 -189 -192 0
-224 -186 -255 -189 -228 0
-224 -186 -255 -189 -261 0
-224 -186 -255 -258 -192 0
-224 -186 -255 -258 -228 0
-224 -186 -255 -258 -261 0
-224 -186 -255 -192 -228 0
-224 -186 -255 -192 -261 0
-224 -186 -255 -228 -261 0
-224 -186 -189 -258 -192 0
-224 -186 -189 -258 -228 0
-224 -186 -189 -258 -261 0
-224 -186 -189 -192 -228 0
-224 -186 -189 -192 -261 0
-224 -186 -189 -228 -261 0
-224 -186 -258 -192 -228 0
-224 -186 -258 -192 -261 0
-224 -186 -258 -228 -261 0
-224 -186 -192 -228 -261 0
-224 -222 -255 -189 -258 0
-224 -222 -255 -189 -192 0
-224 -222 -255 -189 -228 0
-224 -222 -255 -189 -261 0
-224 -222 -255 -258 -192 0
-224 -222 -255 -258 -228 0
-224 -222 -255 -258 -261 0
-224 -222 -255 -192 -228 0
-224 -222 -255 -192 -261 0
-224 -222 -255 -228 -261 0
-224 -222 -189 -258 -192 0
-224 -222 -189 -258 -228 0
-224 -222 -189 -258 -261 0
-224 -222 -189 -192 -228 0
-224 -222 -189 -192 -261 0
-224 -222 -189 -228 -261 0
-224 -222 -258 -192 -228 0
-224 -222 -258 -192 -261 0
-224 -222 -258 -228 -261 0
-224 -222 -192 -228 -261 0
-224 -255 -189 -258 -192 0
-224 -255 -189 -258 -228 0
-224 -255 -189 -258 -261 0
-224 -255 -189 -192 -228 0
-224 -255 -189 -192 -261 0
-224 -255 -189 -228 -261 0
-224 -255 -258 -192 -228 0
-224 -255 -258 -192 -261 0
-224 -255 -258 -228 -261 0
-224 -255 -192 -228 -261 0
-224 -189 -258 -192 -228 0
-224 -189 -258 -192 -261 0
-224 -189 -258 -228 -261 0
-224 -189 -192 -228 -261 0
-224 -258 -192 -228 -261 0
-224 186 222 255 189 258 192 0
-224 186 222 255 189 258 228 0
-224 186 222 255 189 258 261 0
-224 186 222 255 189 192 228 0
-224 186 222 255 189 192 261 0
-224 186 222 255 189 228 261 0
-224 186 222 255 258 192 228 0
-224 186 222 255 258 192 261 0
-224 186 222 255 258 228 261 0
-224 186 222 255 192 228 261 0
-224 186 222 189 258 192 228 0
-224 186 222 189 258 192 261 0
-224 186 222 189 258 228 261 0
-224 186 222 189 192 228 261 0
-224 186 222 258 192 228 261 0
-224 186 255 189 258 192 228 0
-224 186 255 189 258 192 261 0
-224 186 255 189 258 228 261 0
-224 186 255 189 192 228 261 0
-224 186 255 258 192 228 261 0
-224 186 189 258 192 228 261 0
-224 222 255 189 258 192 228 0
-224 222 255 189 258 192 261 0
-224 222 255 189 258 228 261 0
-224 222 255 189 192 228 261 0
-224 222 255 258 192 228 261 0
-224 222 189 258 192 228 261 0
-224 255 189 258 192 228 261 0
-225 -184 -220 -253 -187 -256 0
-225 -184 -220 -253 -187 -190 0
-225 -184 -220 -253 -187 -226 0
-225 -184 -220 -253 -187 -259 0
-225 -184 -220 -253 -256 -190 0
-225 -184 -220 -253 -256 -226 0
-225 -184 -220 -253 -256 -259 0
-225 -184 -220 -253 -190 -226 0
-225 -184 -220 -253 -190 -259 0
-225 -184 -220 -253 -226 -259 0
-225 -184 -220 -187 -256 -190 0
-225 -184 -220 -187 -256 -226 0
-225 -184 -220 -187 -256 -259 0
-225 -184 -220 -187 -190 -226 0
-225 -184 -220 -187 -190 -259 0
-225 -184 -220 -187 -226 -259 0
-225 -184 -220 -256 -190 -226 0
-225 -184 -220 -256 -190 -259 0
-225 -184 -220 -256 -226 -259 0
-225 -184 -220 -190 -226 -259 0
-225 -184 -253 -187 -256 -190 0
-225 -184 -253 -187 -256 -226 0
-225 -184 -253 -187 -256 -259 0
-225 -184 -253 -187 -190 -226 0
-225 -184 -253 -187 -190 -259 0
-225 -184 -253 -187 -226 -259 0
-225 -184 -253 -256 -190 -226 0
-225 -184 -253 -256 -190 -259 0
-225 -184 -253 -256 -226 -259 0
-225 -184 -253 -190 -226 -259 0
-225 -184 -187 -256 -190 -226 0
-225 -184 -187 -256 -190 -259 0
-225 -184 -187 -256 -226 -259 0
-225 -184 -187 -190 -226 -259 0
-225 -184 -256 -190 -226 -259 0
-225 -220 -253 -187 -256 -190 0
-225 -220 -253 -187 -256 -226 0
-225 -220 -253 -187 -256 -259 0
-225 -220 -253 -187 -190 -226 0
-225 -220 -253 -187 -190 -259 0
-225 -220 -253 -187 -226 -259 0
-225 -220 -253 -256 -190 -226 0
-225 -220 -253 -256 -190 -259 0
-225 -220 -253 -256 -226 -259 0
-225 -220 -253 -190 -226 -259 0
-225 -220 -187 -256 -190 -226 0
-225 -220 -187 -256 -190 -259 0
-225 -220 -187 -256 -226 -259 0
-225 -220 -187 -190 -226 -259 0
-225 -220 -256 -190 -226 -259 0
-225 -253 -187 -256 -190 -226 0
-225 -253 -187 -256 -190 -259 0
-225 -253 -187 -256 -226 -259 0
-225 -253 -187 -190 -226 -259 0
-225 -253 -256 -190 -226 -259 0
-225 -187 -256 -190 -226 -259 0
-225 184 220 253 187 256 0
-225 184 220 253 187 190 0
-225 184 220 253 187 226 0
-225 184 220 253 187 259 0
-225 184 220 253 256 190 0
-225 184 220 253 256 226 0
-225 184 220 253 256 259 0
-225 184 220 253 190 226 0
-225 184 220 253 190 259 0
-225 184 220 253 226 259 0
-225 184 220 187 256 190 0
-225 184 220 187 256 226 0
-225 184 220 187 256 259 0
-225 184 220 187 190 226 0
-225 184 220 187 190 259 0
-225 184 220 187 226 259 0
-225 184 220 256 190 226 0
-225 184 220 256 190 259 0
-225 184 220 256 226 259 0
-225 184 220 190 226 259 0
-225 184 253 187 256 190 0
-225 184 253 187 256 226 0
-225 184 253 187 256 259 0
-225 184 253 187 190 226 0
-225 184 253 187 190 259 0
-225 184 253 187 226 259 0
-225 184 253 256 190 226 0
-225 184 253 256 190 259 0
-225 184 253 256 226 259 0
-225 184 253 190 226 259 0
-225 184 187 256 190 226 0
-225 184 187 256 190 259 0
-225 184 187 256 226 259 0
-225 184 187 190 226 259 0
-225 184 256 190 226 259 0
-225 220 253 187 256 190 0
-225 220 253 187 256 226 0
-225 220 253 187 256 259 0
-225 220 253 187 190 226 0
-225 220 253 187 190 259 0
-225 220 253 187 226 259 0
-225 220 253 256 190 226 0
-225 220 253 256 190 259 0
-225 220 253 256 226 259 0
-225 220 253 190 226 259 0
-225 220 187 256 190 226 0
-225 220 187 256 190 259 0
-225 220 187 256 226 259 0
-225 220 187 190 226 259 0
-225 220 256 190 226 259 0
-225 253 187 256 190 226 0
-225 253 187 256 190 259 0
-225 253 187 256 226 259 0
-225 253 187 190 226 259 0
-225 253 256 190 226 259 0
-225 187 256 190 226 259 0
-226 -227 0
-226 -228 0
-227 -228 0
-226 -188 -224 -257 0
-226 -188 -224 -191 0
-226 -188 -224 -260 0
-226 -188 -224 -194 0
-226 -188 -224 -230 0
-226 -188 -224 -263 0
-226 -188 -257 -191 0
-226 -188 -257 -260 0
-226 -188 -257 -194 0
-226 -188 -257 -230 0
-226 -188 -257 -263 0
-226 -188 -191 -260 0
-226 -188 -191 -194 0
-226 -188 -191 -230 0
-226 -188 -191 -263 0
-226 -188 -260 -194 0
-226 -188 -260 -230 0
-226 -188 -260 -263 0
-226 -188 -194 -230 0
-226 -188 -194 -263 0
-226 -188 -230 -263 0
-226 -224 -257 -191 0
-226 -224 -257 -260 0
-226 -224 -257 -194 0
-226 -224 -257 -230 0
-226 -224 -257 -263 0
-226 -224 -191 -260 0
-226 -224 -191 -194 0
-226 -224 -191 -230 0
-226 -224 -191 -263 0
-226 -224 -260 -194 0
-226 -224 -260 -230 0
-226 -224 -260 -263 0
-226 -224 -194 -230 0
-226 -224 -194 -263 0
-226 -224 -230 -263 0
-226 -257 -191 -260 0
-226 -257 -191 -194 0
-226 -257 -191 -230 0
-226 -257 -191 -263 0
-226 -257 -260 -194 0
-226 -257 -260 -230 0
-226 -257 -260 -263 0
-226 -257 -194 -230 0
-226 -257 -194 -263 0
-226 -257 -230 -263 0
-226 -191 -260 -194 0
-226 -191 -260 -230 0
-226 -191 -260 -263 0
-226 -191 -194 -230 0
-226 -191 -194 -263 0
-226 -191 -230 -263 0
-226 -260 -194 -230 0
-226 -260 -194 -263 0
-226 -260 -230 -263 0
-226 -194 -230 -263 0
-226 188 224 257 191 260 194 230 0
-226 188 224 257 191 260 194 263 0
-226 188 224 257 191 260 230 263 0
-226 188 224 257 191 194 230 263 0
-226 188 224 257 260 194 230 263 0
-226 188 224 191 260 194 230 263 0
-226 188 257 191 260 194 230 263 0
-226 224 257 191 260 194 230 263 0
-227 -189 -225 -258 -192 0
-227 -189 -225 -258 -261 0
-227 -189 -225 -258 -195 0
-227 -189 -225 -258 -231 0
-227 -189 -225 -258 -264 0
-227 -189 -225 -192 -261 0
-227 -189 -225 -192 -195 0
-227 -189 -225 -192 -231 0
-227 -189 -225 -192 -264 0
-227 -189 -225 -261 -195 0
-227 -189 -225 -261 -231 0
-227 -189 -225 -261 -264 0
-227 -189 -225 -195 -231 0
-227 -189 -225 -195 -264 0
-227 -189 -225 -231 -264 0
-227 -189 -258 -192 -261 0
-227 -189 -258 -192 -195 0
-227 -189 -258 -192 -231 0
-227 -189 -258 -192 -264 0
-227 -189 -258 -261 -195 0
-227 -189 -258 -261 -231 0
-227 -189 -258 -261 -264 0
-227 -189 -258 -195 -231 0
-227 -189 -258 -195 -264 0
-227 -189 -258 -231 -264 0
-227 -189 -192 -261 -195 0
-227 -189 -192 -261 -231 0
-227 -189 -192 -261 -264 0
-227 -189 -192 -195 -231 0
-227 -189 -192 -195 -264 0
-227 -189 -192 -231 -264 0
-227 -189 -261 -195 -231 0
-227 -189 -261 -195 -264 0
-227 -189 -261 -231 -264 0
-227 -189 -195 -231 -264 0
-227 -225 -258 -192 -261 0
-227 -225 -258 -192 -195 0
-227 -225 -258 -192 -231 0
-227 -225 -258 -192 -264 0
-227 -225 -258 -261 -195 0
-227 -225 -258 -261 -231 0
-227 -225 -258 -261 -264 0
-227 -225 -258 -195 -231 0
-227 -225 -258 -195 -264 0
-227 -225 -258 -231 -264 0
-227 -225 -192 -261 -195 0
-227 -225 -192 -261 -231 0
-227 -225 -192 -261 -264 0
-227 -225 -192 -195 -231 0
-227 -225 -192 -195 -264 0
-227 -225 -192 -231 -264 0
-227 -225 -261 -195 -231 0
-227 -225 -261 -195 -264 0
-227 -225 -261 -231 -264 0
-227 -225 -195 -231 -264 0
-227 -258 -192 -261 -195 0
-227 -258 -192 -261 -231 0
-227 -258 -192 -261 -264 0
-227 -258 -192 -195 -231 0
-227 -258 -192 -195 -264 0
-227 -258 -192 -231 -264 0
-227 -258 -261 -195 -231 0
-227 -258 -261 -195 -264 0
-227 -258 -261 -231 -264 0
-227 -258 -195 -231 -264 0
-227 -192 -261 -195 -231 0
-227 -192 -261 -195 -264 0
-227 -192 -261 -231 -264 0
-227 -192 -195 -231 -264 0
-227 -261 -195 -231 -264 0
-227 189 225 258 192 261 195 0
-227 189 225 258 192 261 231 0
-227 189 225 258 192 261 264 0
-227 189 225 258 192 195 231 0
-227 189 225 258 192 195 264 0
-227 189 225 258 192 231 264 0
-227 189 225 258 261 195 231 0
-227 189 225 258 261 195 264 0
-227 189 225 258 261 231 264 0
-227 189 225 258 195 231 264 0
-227 189 225 192 261 195 231 0
-227 189 225 192 261 195 264 0
-227 189 225 192 261 231 264 0
-227 189 225 192 195 231 264 0
-227 189 225 261 195 231 264 0
-227 189 258 192 261 195 231 0
-227 189 258 192 261 195 264 0
-227 189 258 192 261 231 264 0
-227 189 258 192 195 231 264 0
-227 189 258 261 195 231 264 0
-227 189 192 261 195 231 264 0
-227 225 258 192 261 195 231 0
-227 225 258 192 261 195 264 0
-227 225 258 192 261 231 264 0
-227 225 258 192 195 231 264 0
-227 225 258 261 195 231 264 0
-227 225 192 261 195 231 264 0
-227 258 192 261 195 231 264 0
-228 -187 -223 -256 -190 -259 0
-228 -187 -223 -256 -190 -193 0
-228 -187 -223 -256 -190 -229 0
-228 -187 -223 -256 -190 -262 0
-228 -187 -223 -256 -259 -193 0
-228 -187 -223 -256 -259 -229 0
-228 -187 -223 -256 -259 -262 0
-228 -187 -223 -256 -193 -229 0
-228 -187 -223 -256 -193 -262 0
-228 -187 -223 -256 -229 -262 0
-228 -187 -223 -190 -259 -193 0
-228 -187 -223 -190 -259 -229 0
-228 -187 -223 -190 -259 -262 0
-228 -187 -223 -190 -193 -229 0
-228 -187 -223 -190 -193 -262 0
-228 -187 -223 -190 -229 -262 0
-228 -187 -223 -259 -193 -229 0
-228 -187 -223 -259 -193 -262 0
-228 -187 -223 -259 -229 -262 0
-228 -187 -223 -193 -229 -262 0
-228 -187 -256 -190 -259 -193 0
-228 -187 -256 -190 -259 -229 0
-228 -187 -256 -190 -259 -262 0
-228 -187 -256 -190 -193 -229 0
-228 -187 -256 -190 -193 -262 0
-228 -187 -256 -190 -229 -262 0
-228 -187 -256 -259 -193 -229 0
-228 -187 -256 -259 -193 -262 0
-228 -187 -256 -259 -229 -262 0
-228 -187 -256 -193 -229 -262 0
-228 -187 -190 -259 -193 -229 0
-228 -187 -190 -259 -193 -262 0
-228 -187 -190 -259 -229 -262 0
-228 -187 -190 -193 -229 -262 0
-228 -187 -259 -193 -229 -262 0
-228 -223 -256 -190 -259 -193 0
-228 -223 -256 -190 -259 -229 0
-228 -223 -256 -190 -259 -262 0
-228 -223 -256 -190 -193 -229 0
-228 -223 -256 -190 -193 -262 0
-228 -223 -256 -190 -229 -262 0
-228 -223 -256 -259 -193 -229 0
-228 -223 -256 -259 -193 -262 0
-228 -223 -256 -259 -229 -262 0
-228 -223 -256 -193 -229 -262 0
-228 -223 -190 -259 -193 -229 0
-228 -223 -190 -259 -193 -262 0
-228 -223 -190 -259 -229 -262 0
-228 -223 -190 -193 -229 -262 0
-228 -223 -259 -193 -229 -262 0
-228 -256 -190 -259 -193 -229 0
-228 -256 -190 -259 -193 -262 0
-228 -256 -190 -259 -229 -262 0
-228 -256 -190 -193 -229 -262 0
-228 -256 -259 -193 -229 -262 0
-228 -190 -259 -193 -229 -262 0
-228 187 223 256 190 259 0
-228 187 223 256 190 193 0
-228 187 223 256 190 229 0
-228 187 223 256 190 262 0
-228 187 223 256 259 193 0
-228 187 223 256 259 229 0
-228 187 223 256 259 262 0
-228 187 223 256 193 229 0
-228 187 223 256 193 262 0
-228 187 223 256 229 262 0
-228 187 223 190 259 193 0
-228 187 223 190 259 229 0
-228 187 223 190 259 262 0
-228 187 223 190 193 229 0
-228 187 223 190 193 262 0
-228 187 223 190 229 262 0
-228 187 223 259 193 229 0
-228 187 223 259 193 262 0
-228 187 223 259 229 262 0
-228 187 223 193 229 262 0
-228 187 256 190 259 193 0
-228 187 256 190 259 229 0
-228 187 256 190 259 262 0
-228 187 256 190 193 229 0
-228 187 256 190 193 262 0
-228 187 256 190 229 262 0
-228 187 256 259 193 229 0
-228 187 256 259 193 262 0
-228 187 256 259 229 262 0
-228 187 256 193 229 262 0
-228 187 190 259 193 229 0
-228 187 190 259 193 262 0
-228 187 190 259 229 262 0
-228 187 190 193 229 262 0
-228 187 259 193 229 262 0
-228 223 256 190 259 193 0
-228 223 256 190 259 229 0
-228 223 256 190 259 262 0
-228 223 256 190 193 229 0
-228 223 256 190 193 262 0
-228 223 256 190 229 262 0
-228 223 256 259 193 229 0
-228 223 256 259 193 262 0
-228 223 256 259 229 262 0
-228 223 256 193 229 262 0
-228 223 190 259 193 229 0
-228 223 190 259 193 262 0
-228 223 190 259 229 262 0
-228 223 190 193 229 262 0
-228 223 259 193 229 262 0
-228 256 190 259 193 229 0
-228 256 190 259 193 262 0
-228 256 190 259 229 262 0
-228 256 190 193 229 262 0
-228 256 259 193 229 262 0
-228 190 259 193 229 262 0
-229 -230 0
-229 -231 0
-230 -231 0
-229 -191 -227 -260 0
-229 -191 -227 -194 0
-229 -191 -227 -263 0
-229 -191 -227 -197 0
-229 -191 -227 -233 0
-229 -191 -227 -266 0
-229 -191 -260 -194 0
-229 -191 -260 -263 0
-229 -191 -260 -197 0
-229 -191 -260 -233 0
-229 -191 -260 -266 0
-229 -191 -194 -263 0
-229 -191 -194 -197 0
-229 -191 -194 -233 0
-229 -191 -194 -266 0
-229 -191 -263 -197 0
-229 -191 -263 -233 0
-229 -191 -263 -266 0
-229 -191 -197 -233 0
-229 -191 -197 -266 0
-229 -191 -233 -266 0
-229 -227 -260 -194 0
-229 -227 -260 -263 0
-229 -227 -260 -197 0
-229 -227 -260 -233 0
-229 -227 -260 -266 0
-229 -227 -194 -263 0
-229 -227 -194 -197 0
-229 -227 -194 -233 0
-229 -227 -194 -266 0
-229 -227 -263 -197 0
-229 -227 -263 -233 0
-229 -227 -263 -266 0
-229 -227 -197 -233 0
-229 -227 -197 -266 0
-229 -227 -233 -266 0
-229 -260 -194 -263 0
-229 -260 -194 -197 0
-229 -260 -194 -233 0
-229 -260 -194 -266 0
-229 -260 -263 -197 0
-229 -260 -263 -233 0
-229 -260 -263 -266 0
-229 -260 -197 -233 0
-229 -260 -197 -266 0
-229 -260 -233 -266 0
-229 -194 -263 -197 0
-229 -194 -263 -233 0
-229 -194 -263 -266 0
-229 -194 -197 -233 0
-229 -194 -197 -266 0
-229 -194 -233 -266 0
-229 -263 -197 -233 0
-229 -263 -197 -266 0
-229 -263 -233 -266 0
-229 -197 -233 -266 0
-229 191 227 260 194 263 197 233 0
-229 191 227 260 194 263 197 266 0
-229 191 227 260 194 263 233 266 0
-229 191 227 260 194 197 233 266 0
-229 191 227 260 263 197 233 266 0
-229 191 227 194 263 197 233 266 0
-229 191 260 194 263 197 233 266 0
-229 227 260 194 263 197 233 266 0
-230 -192 -228 -261 -195 0
-230 -192 -228 -261 -264 0
-230 -192 -228 -261 -198 0
-230 -192 -228 -261 -234 0
-230 -192 -228 -261 -267 0
-230 -192 -228 -195 -264 0
-230 -192 -228 -195 -198 0
-230 -192 -228 -195 -234 0
-230 -192 -228 -195 -267 0
-230 -192 -228 -264 -198 0
-230 -192 -228 -264 -234 0
-230 -192 -228 -264 -267 0
-230 -192 -228 -198 -234 0
-230 -192 -228 -198 -267 0
-230 -192 -228 -234 -267 0
-230 -192 -261 -195 -264 0
-230 -192 -261 -195 -198 0
-230 -192 -261 -195 -234 0
-230 -192 -261 -195 -267 0
-230 -192 -261 -264 -198 0
-230 -192 -261 -264 -234 0
-230 -192 -261 -264 -267 0
-230 -192 -261 -198 -234 0
-230 -192 -261 -198 -267 0
-230 -192 -261 -234 -267 0
-230 -192 -195 -264 -198 0
-230 -192 -195 -264 -234 0
-230 -192 -195 -264 -267 0
-230 -192 -195 -198 -234 0
-230 -192 -195 -198 -267 0
-230 -192 -195 -234 -267 0
-230 -192 -264 -198 -234 0
-230 -192 -264 -198 -267 0
-230 -192 -264 -234 -267 0
-230 -192 -198 -234 -267 0
-230 -228 -261 -195 -264 0
-230 -228 -261 -195 -198 0
-230 -228 -261 -195 -234 0
-230 -228 -261 -195 -267 0
-230 -228 -261 -264 -198 0
-230 -228 -261 -264 -234 0
-230 -228 -261 -264 -267 0
-230 -228 -261 -198 -234 0
-230 -228 -261 -198 -267 0
-230 -228 -261 -234 -267 0
-230 -228 -195 -264 -198 0
-230 -228 -195 -264 -234 0
-230 -228 -195 -264 -267 0
-230 -228 -195 -198 -234 0
-230 -228 -195 -198 -267 0
-230 -228 -195 -234 -267 0
-230 -228 -264 -198 -234 0
-230 -228 -264 -198 -267 0
-230 -228 -264 -234 -267 0
-230 -228 -198 -234 -267 0
-230 -261 -195 -264 -198 0
-230 -261 -195 -264 -234 0
-230 -261 -195 -264 -267 0
-230 -261 -195 -198 -234 0
-230 -261 -195 -198 -267 0
-230 -261 -195 -234 -267 0
-230 -261 -264 -198 -234 0
-230 -261 -264 -198 -267 0
-230 -261 -264 -234 -267 0
-230 -261 -198 -234 -267 0
-230 -195 -264 -198 -234 0
-230 -195 -264 -198 -267 0
-230 -195 -264 -234 -267 0
-230 -195 -198 -234 -267 0
-230 -264 -198 -234 -267 0
-230 192 228 261 195 264 198 0
-230 192 228 261 195 264 234 0
-230 192 228 261 195 264 267 0
-230 192 228 261 195 198 234 0
-230 192 228 261 195 198 267 0
-230 192 228 261 195 234 267 0
-230 192 228 261 264 198 234 0
-230 192 228 261 264 198 267 0
-230 192 228 261 264 234 267 0
-230 192 228 261 198 234 267 0
-230 192 228 195 264 198 234 0
-230 192 228 195 264 198 267 0
-230 192 228 195 264 234 267 0
-230 192 228 195 198 234 267 0
-230 192 228 264 198 234 267 0
-230 192 261 195 264 198 234 0
-230 192 261 195 264 198 267 0
-230 192 261 195 264 234 267 0
-230 192 261 195 198 234 267 0
-230 192 261 264 198 234 267 0
-230 192 195 264 198 234 267 0
-230 228 261 195 264 198 234 0
-230 228 261 195 264 198 267 0
-230 228 261 195 264 234 267 0
-230 228 261 195 198 234 267 0
-230 228 261 264 198 234 267 0
-230 228 195 264 198 234 267 0
-230 261 195 264 198 234 267 0
-231 -190 -226 -259 -193 -262 0
-231 -190 -226 -259 -193 -196 0
-231 -190 -226 -259 -193 -232 0
-231 -190 -226 -259 -193 -265 0
-231 -190 -226 -259 -262 -196 0
-231 -190 -226 -259 -262 -232 0
-231 -190 -226 -259 -262 -265 0
-231 -190 -226 -259 -196 -232 0
-231 -190 -226 -259 -196 -265 0
-231 -190 -226 -259 -232 -265 0
-231 -190 -226 -193 -262 -196 0
-231 -190 -226 -193 -262 -232 0
-231 -190 -226 -193 -262 -265 0
-231 -190 -226 -193 -196 -232 0
-231 -190 -226 -193 -196 -265 0
-231 -190 -226 -193 -232 -265 0
-231 -190 -226 -262 -196 -232 0
-231 -190 -226 -262 -196 -265 0
-231 -190 -226 -262 -232 -265 0
-231 -190 -226 -196 -232 -265 0
-231 -190 -259 -193 -262 -196 0
-231 -190 -259 -193 -262 -232 0
-231 -190 -259 -193 -262 -265 0
-231 -190 -259 -193 -196 -232 0
-231 -190 -259 -193 -196 -265 0
-231 -190 -259 -193 -232 -265 0
-231 -190 -259 -262 -196 -232 0
-231 -190 -259 -262 -196 -265 0
-231 -190 -259 -262 -232 -265 0
-231 -190 -259 -196 -232 -265 0
-231 -190 -193 -262 -196 -232 0
-231 -190 -193 -262 -196 -265 0
-231 -190 -193 -262 -232 -265 0
-231 -190 -193 -196 -232 -265 0
-231 -190 -262 -196 -232 -265 0
-231 -226 -259 -193 -262 -196 0
-231 -226 -259 -193 -262 -232 0
-231 -226 -259 -193 -262 -265 0
-231 -226 -259 -193 -196 -232 0
-231 -226 -259 -193 -196 -265 0
-231 -226 -259 -193 -232 -265 0
-231 -226 -259 -262 -196 -232 0
-231 -226 -259 -262 -196 -265 0
-231 -226 -259 -262 -232 -265 0
-231 -226 -259 -196 -232 -265 0
-231 -226 -193 -262 -196 -232 0
-231 -226 -193 -262 -196 -265 0
-231 -226 -193 -262 -232 -265 0
-231 -226 -193 -196 -232 -265 0
-231 -226 -262 -196 -232 -265 0
-231 -259 -193 -262 -196 -232 0
-231 -259 -193 -262 -196 -265 0
-231 -259 -193 -262 -232 -265 0
-231 -259 -193 -196 -232 -265 0
-231 -259 -262 -196 -232 -265 0
-231 -193 -262 -196 -232 -265 0
-231 190 226 259 193 262 0
-231 190 226 259 193 196 0
-231 190 226 259 193 232 0
-231 190 226 259 193 265 0
-231 190 226 259 262 196 0
-231 190 226 259 262 232 0
-231 190 226 259 262 265 0
-231 190 226 259 196 232 0
-231 190 226 259 196 265 0
-231 190 226 259 232 265 0
-231 190 226 193 262 196 0
-231 190 226 193 262 232 0
-231 190 226 193 262 265 0
-231 190 226 193 196 232 0
-231 190 226 193 196 265 0
-231 190 226 193 232 265 0
-231 190 226 262 196 232 0
-231 190 226 262 196 265 0
-231 190 226 262 232 265 0
-231 190 226 196 232 265 0
-231 190 259 193 262 196 0
-231 190 259 193 262 232 0
-231 190 259 193 262 265 0
-231 190 259 193 196 232 0
-231 190 259 193 196 265 0
-231 190 259 193 232 265 0
-231 190 259 262 196 232 0
-231 190 259 262 196 265 0
-231 190 259 262 232 265 0
-231 190 259 196 232 265 0
-231 190 193 262 196 232 0
-231 190 193 262 196 265 0
-231 190 193 262 232 265 0
-231 190 193 196 232 265 0
-231 190 262 196 232 265 0
-231 226 259 193 262 196 0
-231 226 259 193 262 232 0
-231 226 259 193 262 265 0
-231 226 259 193 196 232 0
-231 226 259 193 196 265 0
-231 226 259 193 232 265 0
-231 226 259 262 196 232 0
-231 226 259 262 196 265 0
-231 226 259 262 232 265 0
-231 226 259 196 232 265 0
-231 226 193 262 196 232 0
-231 226 193 262 196 265 0
-231 226 193 262 232 265 0
-231 226 193 196 232 265 0
-231 226 262 196 232 265 0
-231 259 193 262 196 232 0
-231 259 193 262 196 265 0
-231 259 193 262 232 265 0
-231 259 193 196 232 265 0
-231 259 262 196 232 265 0
-231 193 262 196 232 265 0
-232 -233 0
-232 -234 0
-233 -234 0
-232 -194 -230 -263 0
-232 -194 -230 -197 0
-232 -194 -230 -266 0
-232 -194 -230 -200 0
-232 -194 -230 -236 0
-232 -194 -230 -269 0
-232 -194 -263 -197 0
-232 -194 -263 -266 0
-232 -194 -263 -200 0
-232 -194 -263 -236 0
-232 -194 -263 -269 0
-232 -194 -197 -266 0
-232 -194 -197 -200 0
-232 -194 -197 -236 0
-232 -194 -197 -269 0
-232 -194 -266 -200 0
-232 -194 -266 -236 0
-232 -194 -266 -269 0
-232 -194 -200 -236 0
-232 -194 -200 -269 0
-232 -194 -236 -269 0
-232 -230 -263 -197 0
-232 -230 -263 -266 0
-232 -230 -263 -200 0
-232 -230 -263 -236 0
-232 -230 -263 -269 0
-232 -230 -197 -266 0
-232 -230 -197 -200 0
-232 -230 -197 -236 0
-232 -230 -197 -269 0
-232 -230 -266 -200 0
-232 -230 -266 -236 0
-232 -230 -266 -269 0
-232 -230 -200 -236 0
-232 -230 -200 -269 0
-232 -230 -236 -269 0
-232 -263 -197 -266 0
-232 -263 -197 -200 0
-232 -263 -197 -236 0
-232 -263 -197 -269 0
-232 -263 -266 -200 0
-232 -263 -266 -236 0
-232 -263 -266 -269 0
-232 -263 -200 -236 0
-232 -263 -200 -269 0
-232 -263 -236 -269 0
-232 -197 -266 -200 0
-232 -197 -266 -236 0
-232 -197 -266 -269 0
-232 -197 -200 -236 0
-232 -197 -200 -269 0
-232 -197 -236 -269 0
-232 -266 -200 -236 0
-232 -266 -200 -269 0
-232 -266 -236 -269 0
-232 -200 -236 -269 0
-232 194 230 263 197 266 200 236 0
-232 194 230 263 197 266 200 269 0
-232 194 230 263 197 266 236 269 0
-232 194 230 263 197 200 236 269 0
-232 194 230 263 266 200 236 269 0
-232 194 230 197 266 200 236 269 0
-232 194 263 197 266 200 236 269 0
-232 230 263 197 266 200 236 269 0
-233 -195 -231 -264 -198 0
-233 -195 -231 -264 -267 0
-233 -195 -231 -264 -201 0
-233 -195 -231 -264 -237 0
-233 -195 -231 -264 -270 0
-233 -195 -231 -198 -267 0
-233 -195 -231 -198 -201 0
-233 -195 -231 -198 -237 0
-233 -195 -231 -198 -270 0
-233 -195 -231 -267 -201 0
-233 -195 -231 -267 -237 0
-233 -195 -231 -267 -270 0
-233 -195 -231 -201 -237 0
-233 -195 -231 -201 -270 0
-233 -195 -231 -237 -270 0
-233 -195 -264 -198 -267 0
-233 -195 -264 -198 -201 0
-233 -195 -264 -198 -237 0
-233 -195 -264 -198 -270 0
-233 -195 -264 -267 -201 0
-233 -195 -264 -267 -237 0
-233 -195 -264 -267 -270 0
-233 -195 -264 -201 -237 0
-233 -195 -264 -201 -270 0
-233 -195 -264 -237 -270 0
-233 -195 -198 -267 -201 0
-233 -195 -198 -267 -237 0
-233 -195 -198 -267 -270 0
-233 -195 -198 -201 -237 0
-233 -195 -198 -201 -270 0
-233 -195 -198 -237 -270 0
-233 -195 -267 -201 -237 0
-233 -195 -267 -201 -270 0
-233 -195 -267 -237 -270 0
-233 -195 -201 -237 -270 0
-233 -231 -264 -198 -267 0
-233 -231 -264 -198 -201 0
-233 -231 -264 -198 -237 0
-233 -231 -264 -198 -270 0
-233 -231 -264 -267 -201 0
-233 -231 -264 -267 -237 0
-233 -231 -264 -267 -270 0
-233 -231 -264 -201 -237 0
-233 -231 -264 -201 -270 0
-233 -231 -264 -237 -270 0
-233 -231 -198 -267 -201 0
-233 -231 -198 -267 -237 0
-233 -231 -198 -267 -270 0
-233 -231 -198 -201 -237 0
-233 -231 -198 -201 -270 0
-233 -231 -198 -237 -270 0
-233 -231 -267 -201 -237 0
-233 -231 -267 -201 -270 0
-233 -231 -267 -237 -270 0
-233 -231 -201 -237 -270 0
-233 -264 -198 -267 -201 0
-233 -264 -198 -267 -237 0
-233 -264 -198 -267 -270 0
-233 -264 -198 -201 -237 0
-233 -264 -198 -201 -270 0
-233 -264 -198 -237 -270 0
-233 -264 -267 -201 -237 0
-233 -264 -267 -201 -270 0
-233 -264 -267 -237 -270 0
-233 -264 -201 -237 -270 0
-233 -198 -267 -201 -237 0
-233 -198 -267 -201 -270 0
-233 -198 -267 -237 -270 0
-233 -198 -201 -237 -270 0
-233 -267 -201 -237 -270 0
-233 195 231 264 198 267 201 0
-233 195 231 264 198 267 237 0
-233 195 231 264 198 267 270 0
-233 195 231 264 198 201 237 0
-233 195 231 264 198 201 270 0
-233 195 231 264 198 237 270 0
-233 195 231 264 267 201 237 0
-233 195 231 264 267 201 270 0
-233 195 231 264 267 237 270 0
-233 195 231 264 201 237 270 0
-233 195 231 198 267 201 237 0
-233 195 231 198 267 201 270 0
-233 195 231 198 267 237 270 0
-233 195 231 198 201 237 270 0
-233 195 231 267 201 237 270 0
-233 195 264 198 267 201 237 0
-233 195 264 198 267 201 270 0
-233 195 264 198 267 237 270 0
-233 195 264 198 201 237 270 0
-233 195 264 267 201 237 270 0
-233 195 198 267 201 237 270 0
-233 231 264 198 267 201 237 0
-233 231 264 198 267 201 270 0
-233 231 264 198 267 237 270 0
-233 231 264 198 201 237 270 0
-233 231 264 267 201 237 270 0
-233 231 198 267 201 237 270 0
-233 264 198 267 201 237 270 0
-234 -193 -229 -262 -196 -265 0
-234 -193 -229 -262 -196 -199 0
-234 -193 -229 -262 -196 -235 0
-234 -193 -229 -262 -196 -268 0
-234 -193 -229 -262 -265 -199 0
-234 -193 -229 -262 -265 -235 0
-234 -193 -229 -262 -265 -268 0
-234 -193 -229 -262 -199 -235 0
-234 -193 -229 -262 -199 -268 0
-234 -193 -229 -262 -235 -268 0
-234 -193 -229 -196 -265 -199 0
-234 -193 -229 -196 -265 -235 0
-234 -193 -229 -196 -265 -268 0
-234 -193 -229 -196 -199 -235 0
-234 -193 -229 -196 -199 -268 0
-234 -193 -229 -196 -235 -268 0
-234 -193 -229 -265 -199 -235 0
-234 -193 -229 -265 -199 -268 0
-234 -193 -229 -265 -235 -268 0
-234 -193 -229 -199 -235 -268 0
-234 -193 -262 -196 -265 -199 0
-234 -193 -262 -196 -265 -235 0
-234 -193 -262 -196 -265 -268 0
-234 -193 -262 -196 -199 -235 0
-234 -193 -262 -196 -199 -268 0
-234 -193 -262 -196 -235 -268 0
-234 -193 -262 -265 -199 -235 0
-234 -193 -262 -265 -199 -268 0
-234 -193 -262 -265 -235 -268 0
-234 -193 -262 -199 -235 -268 0
-234 -193 -196 -265 -199 -235 0
-234 -193 -196 -265 -199 -268 0
-234 -193 -196 -265 -235 -268 0
-234 -193 -196 -199 -235 -268 0
-234 -193 -265 -199 -235 -268 0
-234 -229 -262 -196 -265 -199 0
-234 -229 -262 -196 -265 -235 0
-234 -229 -262 -196 -265 -268 0
-234 -229 -262 -196 -199 -235 0
-234 -229 -262 -196 -199 -268 0
-234 -229 -262 -196 -235 -268 0
-234 -229 -262 -265 -199 -235 0
-234 -229 -262 -265 -199 -268 0
-234 -229 -262 -265 -235 -268 0
-234 -229 -262 -199 -235 -268 0
-234 -229 -196 -265 -199 -235 0
-234 -229 -196 -265 -199 -268 0
-234 -229 -196 -265 -235 -268 0
-234 -229 -196 -199 -235 -268 0
-234 -229 -265 -199 -235 -268 0
-234 -262 -196 -265 -199 -235 0
-234 -262 -196 -265 -199 -268 0
-234 -262 -196 -265 -235 -268 0
-234 -262 -196 -199 -235 -268 0
-234 -262 -265 -199 -235 -268 0
-234 -196 -265 -199 -235 -268 0
-234 193 229 262 196 265 0
-234 193 229 262 196 199 0
-234 193 229 262 196 235 0
-234 193 229 262 196 268 0
-234 193 229 262 265 199 0
-234 193 229 262 265 235 0
-234 193 229 262 265 268 0
-234 193 229 262 199 235 0
-234 193 229 262 199 268 0
-234 193 229 262 235 268 0
-234 193 229 196 265 199 0
-234 193 229 196 265 235 0
-234 193 229 196 265 268 0
-234 193 229 196 199 235 0
-234 193 229 196 199 268 0
-234 193 229 196 235 268 0
-234 193 229 265 199 235 0
-234 193 229 265 199 268 0
-234 193 229 265 235 268 0
-234 193 229 199 235 268 0
-234 193 262 196 265 199 0
-234 193 262 196 265 235 0
-234 193 262 196 265 268 0
-234 193 262 196 199 235 0
-234 193 262 196 199 268 0
-234 193 262 196 235 268 0
-234 193 262 265 199 235 0
-234 193 262 265 199 268 0
-234 193 262 265 235 268 0
-234 193 262 199 235 268 0
-234 193 196 265 199 235 0
-234 193 196 265 199 268 0
-234 193 196 265 235 268 0
-234 193 196 199 235 268 0
-234 193 265 199 235 268 0
-234 229 262 196 265 199 0
-234 229 262 196 265 235 0
-234 229 262 196 265 268 0
-234 229 262 196 199 235 0
-234 229 262 196 199 268 0
-234 229 262 196 235 268 0
-234 229 262 265 199 235 0
-234 229 262 265 199 268 0
-234 229 262 265 235 268 0
-234 229 262 199 235 268 0
-234 229 196 265 199 235 0
-234 229 196 265 199 268 0
-234 229 196 265 235 268 0
-234 229 196 199 235 268 0
-234 229 265 199 235 268 0
-234 262 196 265 199 235 0
-234 262 196 265 199 268 0
-234 262 196 265 235 268 0
-234 262 196 199 235 268 0
-234 262 265 199 235 268 0
-234 196 265 199 235 268 0
-235 -236 0
-235 -237 0
-236 -237 0
-235 -197 -233 -266 0
-235 -197 -233 -200 0
-235 -197 -233 -269 0
-235 -197 -233 -203 0
-235 -197 -233 -239 0
-235 -197 -233 -272 0
-235 -197 -266 -200 0
-235 -197 -266 -269 0
-235 -197 -266 -203 0
-235 -197 -266 -239 0
-235 -197 -266 -272 0
-235 -197 -200 -269 0
-235 -197 -200 -203 0
-235 -197 -200 -239 0
-235 -197 -200 -272 0
-235 -197 -269 -203 0
-235 -197 -269 -239 0
-235 -197 -269 -272 0
-235 -197 -203 -239 0
-235 -197 -203 -272 0
-235 -197 -239 -272 0
-235 -233 -266 -200 0
-235 -233 -266 -269 0
-235 -233 -266 -203 0
-235 -233 -266 -239 0
-235 -233 -266 -272 0
-235 -233 -200 -269 0
-235 -233 -200 -203 0
-235 -233 -200 -239 0
-235 -233 -200 -272 0
-235 -233 -269 -203 0
-235 -233 -269 -239 0
-235 -233 -269 -272 0
-235 -233 -203 -239 0
-235 -233 -203 -272 0
-235 -233 -239 -272 0
-235 -266 -200 -269 0
-235 -266 -200 -203 0
-235 -266 -200 -239 0
-235 -266 -200 -272 0
-235 -266 -269 -203 0
-235 -266 -269 -239 0
-235 -266 -269 -272 0
-235 -266 -203 -239 0
-235 -266 -203 -272 0
-235 -266 -239 -272 0
-235 -200 -269 -203 0
-235 -200 -269 -239 0
-235 -200 -269 -272 0
-235 -200 -203 -239 0
-235 -200 -203 -272 0
-235 -200 -239 -272 0
-235 -269 -203 -239 0
-235 -269 -203 -272 0
-235 -269 -239 -272 0
-235 -203 -239 -272 0
-235 197 233 266 200 269 203 239 0
-235 197 233 266 200 269 203 272 0
-235 197 233 266 200 269 239 272 0
-235 197 233 266 200 203 239 272 0
-235 197 233 266 269 203 239 272 0
-235 197 233 200 269 203 239 272 0
-235 197 266 200 269 203 239 272 0
-235 233 266 200 269 203 239 272 0
-236 -198 -234 -267 -201 0
-236 -198 -234 -267 -270 0
-236 -198 -234 -267 -204 0
-236 -198 -234 -267 -240 0
-236 -198 -234 -267 -273 0
-236 -198 -234 -201 -270 0
-236 -198 -234 -201 -204 0
-236 -198 -234 -201 -240 0
-236 -198 -234 -201 -273 0
-236 -198 -234 -270 -204 0
-236 -198 -234 -270 -240 0
-236 -198 -234 -270 -273 0
-236 -198 -234 -204 -240 0
-236 -198 -234 -204 -273 0
-236 -198 -234 -240 -273 0
-236 -198 -267 -201 -270 0
-236 -198 -267 -201 -204 0
-236 -198 -267 -201 -240 0
-236 -198 -267 -201 -273 0
-236 -198 -267 -270 -204 0
-236 -198 -267 -270 -240 0
-236 -198 -267 -270 -273 0
-236 -198 -267 -204 -240 0
-236 -198 -267 -204 -273 0
-236 -198 -267 -240 -273 0
-236 -198 -201 -270 -204 0
-236 -198 -201 -270 -240 0
-236 -198 -201 -270 -273 0
-236 -198 -201 -204 -240 0
-236 -198 -201 -204 -273 0
-236 -198 -201 -240 -273 0
-236 -198 -270 -204 -240 0
-236 -198 -270 -204 -273 0
-236 -198 -270 -240 -273 0
-236 -198 -204 -240 -273 0
-236 -234 -267 -201 -270 0
-236 -234 -267 -201 -204 0
-236 -234 -267 -201 -240 0
-236 -234 -267 -201 -273 0
-236 -234 -267 -270 -204 0
-236 -234 -267 -270 -240 0
-236 -234 -267 -270 -273 0
-236 -234 -267 -204 -240 0
-236 -234 -267 -204 -273 0
-236 -234 -267 -240 -273 0
-236 -234 -201 -270 -204 0
-236 -234 -201 -270 -240 0
-236 -234 -201 -270 -273 0
-236 -234 -201 -204 -240 0
-236 -234 -201 -204 -273 0
-236 -234 -201 -240 -273 0
-236 -234 -270 -204 -240 0
-236 -234 -270 -204 -273 0
-236 -234 -270 -240 -273 0
-236 -234 -204 -240 -273 0
-236 -267 -201 -270 -204 0
-236 -267 -201 -270 -240 0
-236 -267 -201 -270 -273 0
-236 -267 -201 -204 -240 0
-236 -267 -201 -204 -273 0
-236 -267 -201 -240 -273 0
-236 -267 -270 -204 -240 0
-236 -267 -270 -204 -273 0
-236 -267 -270 -240 -273 0
-236 -267 -204 -240 -273 0
-236 -201 -270 -204 -240 0
-236 -201 -270 -204 -273 0
-236 -201 -270 -240 -273 0
-236 -201 -204 -240 -273 0
-236 -270 -204 -240 -273 0
-236 198 234 267 201 270 204 0
-236 198 234 267 201 270 240 0
-236 198 234 267 201 270 273 0
-236 198 234 267 201 204 240 0
-236 198 234 267 201 204 273 0
-236 198 234 267 201 240 273 0
-236 198 234 267 270 204 240 0
-236 198 234 267 270 204 273 0
-236 198 234 267 270 240 273 0
-236 198 234 267 204 240 273 0
-236 198 234 201 270 204 240 0
-236 198 234 201 270 204 273 0
-236 198 234 201 270 240 273 0
-236 198 234 201 204 240 273 0
-236 198 234 270 204 240 273 0
-236 198 267 201 270 204 240 0
-236 198 267 201 270 204 273 0
-236 198 267 201 270 240 273 0
-236 198 267 201 204 240 273 0
-236 198 267 270 204 240 273 0
-236 198 201 270 204 240 273 0
-236 234 267 201 270 204 240 0
-236 234 267 201 270 204 273 0
-236 234 267 201 270 240 273 0
-236 234 267 201 204 240 273 0
-236 234 267 270 204 240 273 0
-236 234 201 270 204 240 273 0
-236 267 201 270 204 240 273 0
-237 -196 -232 -265 -199 -268 0
-237 -196 -232 -265 -199 -202 0
-237 -196 -232 -265 -199 -238 0
-237 -196 -232 -265 -199 -271 0
-237 -196 -232 -265 -268 -202 0
-237 -196 -232 -265 -268 -238 0
-237 -196 -232 -265 -268 -271 0
-237 -196 -232 -265 -202 -238 0
-237 -196 -232 -265 -202 -271 0
-237 -196 -232 -265 -238 -271 0
-237 -196 -232 -199 -268 -202 0
-237 -196 -232 -199 -268 -238 0
-237 -196 -232 -199 -268 -271 0
-237 -196 -232 -199 -202 -238 0
-237 -196 -232 -199 -202 -271 0
-237 -196 -232 -199 -238 -271 0
-237 -196 -232 -268 -202 -238 0
-237 -196 -232 -268 -202 -271 0
-237 -196 -232 -268 -238 -271 0
-237 -196 -232 -202 -238 -271 0
-237 -196 -265 -199 -268 -202 0
-237 -196 -265 -199 -268 -238 0
-237 -196 -265 -199 -268 -271 0
-237 -196 -265 -199 -202 -238 0
-237 -196 -265 -199 -202 -271 0
-237 -196 -265 -199 -238 -271 0
-237 -196 -265 -268 -202 -238 0
-237 -196 -265 -268 -202 -271 0
-237 -196 -265 -268 -238 -271 0
-237 -196 -265 -202 -238 -271 0
-237 -196 -199 -268 -202 -238 0
-237 -196 -199 -268 -202 -271 0
-237 -196 -199 -268 -238 -271 0
-237 -196 -199 -202 -238 -271 0
-237 -196 -268 -202 -238 -271 0
-237 -232 -265 -199 -268 -202 0
-237 -232 -265 -199 -268 -238 0
-237 -232 -265 -199 -268 -271 0
-237 -232 -265 -199 -202 -238 0
-237 -232 -265 -199 -202 -271 0
-237 -232 -265 -199 -238 -271 0
-237 -232 -265 -268 -202 -238 0
-237 -232 -265 -268 -202 -271 0
-237 -232 -265 -268 -238 -271 0
-237 -232 -265 -202 -238 -271 0
-237 -232 -199 -268 -202 -238 0
-237 -232 -199 -268 -202 -271 0
-237 -232 -199 -268 -238 -271 0
-237 -232 -199 -202 -238 -271 0
-237 -232 -268 -202 -238 -271 0
-237 -265 -199 -268 -202 -238 0
-237 -265 -199 -268 -202 -271 0
-237 -265 -199 -268 -238 -271 0
-237 -265 -199 -202 -238 -271 0
-237 -265 -268 -202 -238 -271 0
-237 -199 -268 -202 -238 -271 0
-237 196 232 265 199 268 0
-237 196 232 265 199 202 0
-237 196 232 265 199 238 0
-237 196 232 265 199 271 0
-237 196 232 265 268 202 0
-237 196 232 265 268 238 0
-237 196 232 265 268 271 0
-237 196 232 265 202 238 0
-237 196 232 265 202 271 0
-237 196 232 265 238 271 0
-237 196 232 199 268 202 0
-237 196 232 199 268 238 0
-237 196 232 199 268 271 0
-237 196 232 199 202 238 0
-237 196 232 199 202 271 0
-237 196 232 199 238 271 0
-237 196 232 268 202 238 0
-237 196 232 268 202 271 0
-237 196 232 268 238 271 0
-237 196 232 202 238 271 0
-237 196 265 199 268 202 0
-237 196 265 199 268 238 0
-237 196 265 199 268 271 0
-237 196 265 199 202 238 0
-237 196 265 199 202 271 0
-237 196 265 199 238 271 0
-237 196 265 268 202 238 0
-237 196 265 268 202 271 0
-237 196 265 268 238 271 0
-237 196 265 202 238 271 0
-237 196 199 268 202 238 0
-237 196 199 268 202 271 0
-237 196 199 268 238 271 0
-237 196 199 202 238 271 0
-237 196 268 202 238 271 0
-237 232 265 199 268 202 0
-237 232 265 199 268 238 0
-237 232 265 199 268 271 0
-237 232 265 199 202 238 0
-237 232 265 199 202 271 0
-237 232 265 199 238 271 0
-237 232 265 268 202 238 0
-237 232 265 268 202 271 0
-237 232 265 268 238 271 0
-237 232 265 202 238 271 0
-237 232 199 268 202 238 0
-237 232 199 268 202 271 0
-237 232 199 268 238 271 0
-237 232 199 202 238 271 0
-237 232 268 202 238 271 0
-237 265 199 268 202 238 0
-237 265 199 268 202 271 0
-237 265 199 268 238 271 0
-237 265 199 202 238 271 0
-237 265 268 202 238 271 0
-237 199 268 202 238 271 0
-238 -239 0
-238 -240 0
-239 -240 0
-238 -200 -236 -269 0
-238 -200 -236 -203 0
-238 -200 -236 -272 0
-238 -200 -236 -206 0
-238 -200 -236 -242 0
-238 -200 -269 -203 0
-238 -200 -269 -272 0
-238 -200 -269 -206 0
-238 -200 -269 -242 0
-238 -200 -203 -272 0
-238 -200 -203 -206 0
-238 -200 -203 -242 0
-238 -200 -272 -206 0
-238 -200 -272 -242 0
-238 -200 -206 -242 0
-238 -236 -269 -203 0
-238 -236 -269 -272 0
-238 -236 -269 -206 0
-238 -236 -269 -242 0
-238 -236 -203 -272 0
-238 -236 -203 -206 0
-238 -236 -203 -242 0
-238 -236 -272 -206 0
-238 -236 -272 -242 0
-238 -236 -206 -242 0
-238 -269 -203 -272 0
-238 -269 -203 -206 0
-238 -269 -203 -242 0
-238 -269 -272 -206 0
-238 -269 -272 -242 0
-238 -269 -206 -242 0
-238 -203 -272 -206 0
-238 -203 -272 -242 0
-238 -203 -206 -242 0
-238 -272 -206 -242 0
-238 200 236 269 203 272 206 0
-238 200 236 269 203 272 242 0
-238 200 236 269 203 206 242 0
-238 200 236 269 272 206 242 0
-238 200 236 203 272 206 242 0
-238 200 269 203 272 206 242 0
-238 236 269 203 272 206 242 0
-239 -201 -237 -270 -204 0
-239 -201 -237 -270 -273 0
-239 -201 -237 -270 -207 0
-239 -201 -237 -270 -243 0
-239 -201 -237 -204 -273 0
-239 -201 -237 -204 -207 0
-239 -201 -237 -204 -243 0
-239 -201 -237 -273 -207 0
-239 -201 -237 -273 -243 0
-239 -201 -237 -207 -243 0
-239 -201 -270 -204 -273 0
-239 -201 -270 -204 -207 0
-239 -201 -270 -204 -243 0
-239 -201 -270 -273 -207 0
-239 -201 -270 -273 -243 0
-239 -201 -270 -207 -243 0
-239 -201 -204 -273 -207 0
-239 -201 -204 -273 -243 0
-239 -201 -204 -207 -243 0
-239 -201 -273 -207 -243 0
-239 -237 -270 -204 -273 0
-239 -237 -270 -204 -207 0
-239 -237 -270 -204 -243 0
-239 -237 -270 -273 -207 0
-239 -237 -270 -273 -243 0
-239 -237 -270 -207 -243 0
-239 -237 -204 -273 -207 0
-239 -237 -204 -273 -243 0
-239 -237 -204 -207 -243 0
-239 -237 -273 -207 -243 0
-239 -270 -204 -273 -207 0
-239 -270 -204 -273 -243 0
-239 -270 -204 -207 -243 0
-239 -270 -273 -207 -243 0
-239 -204 -273 -207 -243 0
-239 201 237 270 204 273 0
-239 201 237 270 204 207 0
-239 201 237 270 204 243 0
-239 201 237 270 273 207 0
-239 201 237 270 273 243 0
-239 201 237 270 207 243 0
-239 201 237 204 273 207 0
-239 201 237 204 273 243 0
-239 201 237 204 207 243 0
-239 201 237 273 207 243 0
-239 201 270 204 273 207 0
-239 201 270 204 273 243 0
-239 201 270 204 207 243 0
-239 201 270 273 207 243 0
-239 201 204 273 207 243 0
-239 237 270 204 273 207 0
-239 237 270 204 273 243 0
-239 237 270 204 207 243 0
-239 237 270 273 207 243 0
-239 237 204 273 207 243 0
-239 270 204 273 207 243 0
-240 -199 -235 -268 -202 -271 0
-240 -199 -235 -268 -202 -205 0
-240 -199 -235 -268 -202 -241 0
-240 -199 -235 -268 -271 -205 0
-240 -199 -235 -268 -271 -241 0
-240 -199 -235 -268 -205 -241 0
-240 -199 -235 -202 -271 -205 0
-240 -199 -235 -202 -271 -241 0
-240 -199 -235 -202 -205 -241 0
-240 -199 -235 -271 -205 -241 0
-240 -199 -268 -202 -271 -205 0
-240 -199 -268 -202 -271 -241 0
-240 -199 -268 -202 -205 -241 0
-240 -199 -268 -271 -205 -241 0
-240 -199 -202 -271 -205 -241 0
-240 -235 -268 -202 -271 -205 0
-240 -235 -268 -202 -271 -241 0
-240 -235 -268 -202 -205 -241 0
-240 -235 -268 -271 -205 -241 0
-240 -235 -202 -271 -205 -241 0
-240 -268 -202 -271 -205 -241 0
-240 199 235 268 202 0
-240 199 235 268 271 0
-240 199 235 268 205 0
-240 199 235 268 241 0
-240 199 235 202 271 0
-240 199 235 202 205 0
-240 199 235 202 241 0
-240 199 235 271 205 0
-240 199 235 271 241 0
-240 199 235 205 241 0
-240 199 268 202 271 0
-240 199 268 202 205 0
-240 199 268 202 241 0
-240 199 268 271 205 0
-240 199 268 271 241 0
-240 199 268 205 241 0
-240 199 202 271 205 0
-240 199 202 271 241 0
-240 199 202 205 241 0
-240 199 271 205 241 0
-240 235 268 202 271 0
-240 235 268 202 205 0
-240 235 268 202 241 0
-240 235 268 271 205 0
-240 235 268 271 241 0
-240 235 268 205 241 0
-240 235 202 271 205 0
-240 235 202 271 241 0
-240 235 202 205 241 0
-240 235 271 205 241 0
-240 268 202 271 205 0
-240 268 202 271 241 0
-240 268 202 205 241 0
-240 268 271 205 241 0
-240 202 271 205 241 0
-241 -242 0
-241 -243 0
-242 -243 0
-241 -203 -239 -272 0
-241 -203 -239 -206 0
-241 -203 -239 -209 0
-241 -203 -272 -206 0
-241 -203 -272 -209 0
-241 -203 -206 -209 0
-241 -239 -272 -206 0
-241 -239 -272 -209 0
-241 -239 -206 -209 0
-241 -272 -206 -209 0
-241 203 239 272 206 0
-241 203 239 272 209 0
-241 203 239 206 209 0
-241 203 272 206 209 0
-241 239 272 206 209 0
-242 -204 -240 -273 -207 0
-242 -204 -240 -273 -210 0
-242 -204 -240 -207 -210 0
-242 -204 -273 -207 -210 0
-242 -240 -273 -207 -210 0
-242 204 240 273 0
-242 204 240 207 0
-242 204 240 210 0
-242 204 273 207 0
-242 204 273 210 0
-242 204 207 210 0
-242 240 273 207 0
-242 240 273 210 0
-242 240 207 210 0
-242 273 207 210 0
-243 -202 -238 -271 -205 -208 0
-243 202 238 0
-243 202 271 0
-243 202 205 0
-243 202 208 0
-243 238 271 0
-243 238 205 0
-243 238 208 0
-243 271 205 0
-243 271 208 0
-243 205 208 0
-244 -245 0
-244 -246 0
-245 -246 0
-247 -248 0
-247 -249 0
-248 -249 0
-247 -212 -245 -275 0
-247 -212 -245 -215 0
-247 -212 -245 -278 0
-247 -212 -245 -218 0
-247 -212 -245 -251 0
-247 -212 -245 -281 0
-247 -212 -275 -215 0
-247 -212 -275 -278 0
-247 -212 -275 -218 0
-247 -212 -275 -251 0
-247 -212 -275 -281 0
-247 -212 -215 -278 0
-247 -212 -215 -218 0
-247 -212 -215 -251 0
-247 -212 -215 -281 0
-247 -212 -278 -218 0
-247 -212 -278 -251 0
-247 -212 -278 -281 0
-247 -212 -218 -251 0
-247 -212 -218 -281 0
-247 -212 -251 -281 0
-247 -245 -275 -215 0
-247 -245 -275 -278 0
-247 -245 -275 -218 0
-247 -245 -275 -251 0
-247 -245 -275 -281 0
-247 -245 -215 -278 0
-247 -245 -215 -218 0
-247 -245 -215 -251 0
-247 -245 -215 -281 0
-247 -245 -278 -218 0
-247 -245 -278 -251 0
-247 -245 -278 -281 0
-247 -245 -218 -251 0
-247 -245 -218 -281 0
-247 -245 -251 -281 0
-247 -275 -215 -278 0
-247 -275 -215 -218 0
-247 -275 -215 -251 0
-247 -275 -215 -281 0
-247 -275 -278 -218 0
-247 -275 -278 -251 0
-247 -275 -278 -281 0
-247 -275 -218 -251 0
-247 -275 -218 -281 0
-247 -275 -251 -281 0
-247 -215 -278 -218 0
-247 -215 -278 -251 0
-247 -215 -278 -281 0
-247 -215 -218 -251 0
-247 -215 -218 -281 0
-247 -215 -251 -281 0
-247 -278 -218 -251 0
-247 -278 -218 -281 0
-247 -278 -251 -281 0
-247 -218 -251 -281 0
-247 212 245 275 215 278 218 251 0
-247 212 245 275 215 278 218 281 0
-247 212 245 275 215 278 251 281 0
-247 212 245 275 215 218 251 281 0
-247 212 245 275 278 218 251 281 0
-247 212 245 215 278 218 251 281 0
-247 212 275 215 278 218 251 281 0
-247 245 275 215 278 218 251 281 0
-248 -213 -246 -276 -216 0
-248 -213 -246 -276 -279 0
-248 -213 -246 -276 -219 0
-248 -213 -246 -276 -252 0
-248 -213 -246 -276 -282 0
-248 -213 -246 -216 -279 0
-248 -213 -246 -216 -219 0
-248 -213 -246 -216 -252 0
-248 -213 -246 -216 -282 0
-248 -213 -246 -279 -219 0
-248 -213 -246 -279 -252 0
-248 -213 -246 -279 -282 0
-248 -213 -246 -219 -252 0
-248 -213 -246 -219 -282 0
-248 -213 -246 -252 -282 0
-248 -213 -276 -216 -279 0
-248 -213 -276 -216 -219 0
-248 -213 -276 -216 -252 0
-248 -213 -276 -216 -282 0
-248 -213 -276 -279 -219 0
-248 -213 -276 -279 -252 0
-248 -213 -276 -279 -282 0
-248 -213 -276 -219 -252 0
-248 -213 -276 -219 -282 0
-248 -213 -276 -252 -282 0
-248 -213 -216 -279 -219 0
-248 -213 -216 -279 -252 0
-248 -213 -216 -279 -282 0
-248 -213 -216 -219 -252 0
-248 -213 -216 -219 -282 0
-248 -213 -216 -252 -282 0
-248 -213 -279 -219 -252 0
-248 -213 -279 -219 -282 0
-248 -213 -279 -252 -282 0
-248 -213 -219 -252 -282 0
-248 -246 -276 -216 -279 0
-248 -246 -276 -216 -219 0
-248 -246 -276 -216 -252 0
-248 -246 -276 -216 -282 0
-248 -246 -276 -279 -219 0
-248 -246 -276 -279 -252 0
-248 -246 -276 -279 -282 0
-248 -246 -276 -219 -252 0
-248 -246 -276 -219 -282 0
-248 -246 -276 -252 -282 0
-248 -246 -216 -279 -219 0
-248 -246 -216 -279 -252 0
-248 -246 -216 -279 -282 0
-248 -246 -216 -219 -252 0
-248 -246 -216 -219 -282 0
-248 -246 -216 -252 -282 0
-248 -246 -279 -219 -252 0
-248 -246 -279 -219 -282 0
-248 -246 -279 -252 -282 0
-248 -246 -219 -252 -282 0
-248 -276 -216 -279 -219 0
-248 -276 -216 -279 -252 0
-248 -276 -216 -279 -282 0
-248 -276 -216 -219 -252 0
-248 -276 -216 -219 -282 0
-248 -276 -216 -252 -282 0
-248 -276 -279 -219 -252 0
-248 -276 -279 -219 -282 0
-248 -276 -279 -252 -282 0
-248 -276 -219 -252 -282 0
-248 -216 -279 -219 -252 0
-248 -216 -279 -219 -282 0
-248 -216 -279 -252 -282 0
-248 -216 -219 -252 -282 0
-248 -279 -219 -252 -282 0
-248 213 246 276 216 279 219 0
-248 213 246 276 216 279 252 0
-248 213 246 276 216 279 282 0
-248 213 246 276 216 219 252 0
-248 213 246 276 216 219 282 0
-248 213 246 276 216 252 282 0
-248 213 246 276 279 219 252 0
-248 213 246 276 279 219 282 0
-248 213 246 276 279 252 282 0
-248 213 246 276 219 252 282 0
-248 213 246 216 279 219 252 0
-248 213 246 216 279 219 282 0
-248 213 246 216 279 252 282 0
-248 213 246 216 219 252 282 0
-248 213 246 279 219 252 282 0
-248 213 276 216 279 219 252 0
-248 213 276 216 279 219 282 0
-248 213 276 216 279 252 282 0
-248 213 276 216 219 252 282 0
-248 213 276 279 219 252 282 0
-248 213 216 279 219 252 282 0
-248 246 276 216 279 219 252 0
-248 246 276 216 279 219 282 0
-248 246 276 216 279 252 282 0
-248 246 276 216 219 252 282 0
-248 246 276 279 219 252 282 0
-248 246 216 279 219 252 282 0
-248 276 216 279 219 252 282 0
-249 -211 -244 -274 -214 -277 0
-249 -211 -244 -274 -214 -217 0
-249 -211 -244 -274 -214 -250 0
-249 -211 -244 -274 -214 -280 0
-249 -211 -244 -274 -277 -217 0
-249 -211 -244 -274 -277 -250 0
-249 -211 -244 -274 -277 -280 0
-249 -211 -244 -274 -217 -250 0
-249 -211 -244 -274 -217 -280 0
-249 -211 -244 -274 -250 -280 0
-249 -211 -244 -214 -277 -217 0
-249 -211 -244 -214 -277 -250 0
-249 -211 -244 -214 -277 -280 0
-249 -211 -244 -214 -217 -250 0
-249 -211 -244 -214 -217 -280 0
-249 -211 -244 -214 -250 -280 0
-249 -211 -244 -277 -217 -250 0
-249 -211 -244 -277 -217 -280 0
-249 -211 -244 -277 -250 -280 0
-249 -211 -244 -217 -250 -280 0
-249 -211 -274 -214 -277 -217 0
-249 -211 -274 -214 -277 -250 0
-249 -211 -274 -214 -277 -280 0
-249 -211 -274 -214 -217 -250 0
-249 -211 -274 -214 -217 -280 0
-249 -211 -274 -214 -250 -280 0
-249 -211 -274 -277 -217 -250 0
-249 -211 -274 -277 -217 -280 0
-249 -211 -274 -277 -250 -280 0
-249 -211 -274 -217 -250 -280 0
-249 -211 -214 -277 -217 -250 0
-249 -211 -214 -277 -217 -280 0
-249 -211 -214 -277 -250 -280 0
-249 -211 -214 -217 -250 -280 0
-249 -211 -277 -217 -250 -280 0
-249 -244 -274 -214 -277 -217 0
-249 -244 -274 -214 -277 -250 0
-249 -244 -274 -214 -277 -280 0
-249 -244 -274 -214 -217 -250 0
-249 -244 -274 -214 -217 -280 0
-249 -244 -274 -214 -250 -280 0
-249 -244 -274 -277 -217 -250 0
-249 -244 -274 -277 -217 -280 0
-249 -244 -274 -277 -250 -280 0
-249 -244 -274 -217 -250 -280 0
-249 -244 -214 -277 -217 -250 0
-249 -244 -214 -277 -217 -280 0
-249 -244 -214 -277 -250 -280 0
-249 -244 -214 -217 -250 -280 0
-249 -244 -277 -217 -250 -280 0
-249 -274 -214 -277 -217 -250 0
-249 -274 -214 -277 -217 -280 0
-249 -274 -214 -277 -250 -280 0
-249 -274 -214 -217 -250 -280 0
-249 -274 -277 -217 -250 -280 0
-249 -214 -277 -217 -250 -280 0
-249 211 244 274 214 277 0
-249 211 244 274 214 217 0
-249 211 244 274 214 250 0
-249 211 244 274 214 280 0
-249 211 244 274 277 217 0
-249 211 244 274 277 250 0
-249 211 244 274 277 280 0
-249 211 244 274 217 250 0
-249 211 244 274 217 280 0
-249 211 244 274 250 280 0
-249 211 244 214 277 217 0
-249 211 244 214 277 250 0
-249 211 244 214 277 280 0
-249 211 244 214 217 250 0
-249 211 244 214 217 280 0
-249 211 244 214 250 280 0
-249 211 244 277 217 250 0
-249 211 244 277 217 280 0
-249 211 244 277 250 280 0
-249 211 244 217 250 280 0
-249 211 274 214 277 217 0
-249 211 274 214 277 250 0
-249 211 274 214 277 280 0
-249 211 274 214 217 250 0
-249 211 274 214 217 280 0
-249 211 274 214 250 280 0
-249 211 274 277 217 250 0
-249 211 274 277 217 280 0
-249 211 274 277 250 280 0
-249 211 274 217 250 280 0
-249 211 214 277 217 250 0
-249 211 214 277 217 280 0
-249 211 214 277 250 280 0
-249 211 214 217 250 280 0
-249 211 277 217 250 280 0
-249 244 274 214 277 217 0
-249 244 274 214 277 250 0
-249 244 274 214 277 280 0
-249 244 274 214 217 250 0
-249 244 274 214 217 280 0
-249 244 274 214 250 280 0
-249 244 274 277 217 250 0
-249 244 274 277 217 280 0
-249 244 274 277 250 280 0
-249 244 274 217 250 280 0
-249 244 214 277 217 250 0
-249 244 214 277 217 280 0
-249 244 214 277 250 280 0
-249 244 214 217 250 280 0
-249 244 277 217 250 280 0
-249 274 214 277 217 250 0
-249 274 214 277 217 280 0
-249 274 214 277 250 280 0
-249 274 214 217 250 280 0
-249 274 277 217 250 280 0
-249 214 277 217 250 280 0
-250 -251 0
-250 -252 0
-251 -252 0
-250 -215 -248 -278 0
-250 -215 -248 -218 0
-250 -215 -248 -281 0
-250 -215 -248 -221 0
-250 -215 -248 -254 0
-250 -215 -248 -284 0
-250 -215 -278 -218 0
-250 -215 -278 -281 0
-250 -215 -278 -221 0
-250 -215 -278 -254 0
-250 -215 -278 -284 0
-250 -215 -218 -281 0
-250 -215 -218 -221 0
-250 -215 -218 -254 0
-250 -215 -218 -284 0
-250 -215 -281 -221 0
-250 -215 -281 -254 0
-250 -215 -281 -284 0
-250 -215 -221 -254 0
-250 -215 -221 -284 0
-250 -215 -254 -284 0
-250 -248 -278 -218 0
-250 -248 -278 -281 0
-250 -248 -278 -221 0
-250 -248 -278 -254 0
-250 -248 -278 -284 0
-250 -248 -218 -281 0
-250 -248 -218 -221 0
-250 -248 -218 -254 0
-250 -248 -218 -284 0
-250 -248 -281 -221 0
-250 -248 -281 -254 0
-250 -248 -281 -284 0
-250 -248 -221 -254 0
-250 -248 -221 -284 0
-250 -248 -254 -284 0
-250 -278 -218 -281 0
-250 -278 -218 -221 0
-250 -278 -218 -254 0
-250 -278 -218 -284 0
-250 -278 -281 -221 0
-250 -278 -281 -254 0
-250 -278 -281 -284 0
-250 -278 -221 -254 0
-250 -278 -221 -284 0
-250 -278 -254 -284 0
-250 -218 -281 -221 0
-250 -218 -281 -254 0
-250 -218 -281 -284 0
-250 -218 -221 -254 0
-250 -218 -221 -284 0
-250 -218 -254 -284 0
-250 -281 -221 -254 0
-250 -281 -221 -284 0
-250 -281 -254 -284 0
-250 -221 -254 -284 0
-250 215 248 278 218 281 221 254 0
-250 215 248 278 218 281 221 284 0
-250 215 248 278 218 281 254 284 0
-250 215 248 278 218 221 254 284 0
-250 215 248 278 281 221 254 284 0
-250 215 248 218 281 221 254 284 0
-250 215 278 218 281 221 254 284 0
-250 248 278 218 281 221 254 284 0
-251 -216 -249 -279 -219 0
-251 -216 -249 -279 -282 0
-251 -216 -249 -279 -222 0
-251 -216 -249 -279 -255 0
-251 -216 -249 -279 -285 0
-251 -216 -249 -219 -282 0
-251 -216 -249 -219 -222 0
-251 -216 -249 -219 -255 0
-251 -216 -249 -219 -285 0
-251 -216 -249 -282 -222 0
-251 -216 -249 -282 -255 0
-251 -216 -249 -282 -285 0
-251 -216 -249 -222 -255 0
-251 -216 -249 -222 -285 0
-251 -216 -249 -255 -285 0
-251 -216 -279 -219 -282 0
-251 -216 -279 -219 -222 0
-251 -216 -279 -219 -255 0
-251 -216 -279 -219 -285 0
-251 -216 -279 -282 -222 0
-251 -216 -279 -282 -255 0
-251 -216 -279 -282 -285 0
-251 -216 -279 -222 -255 0
-251 -216 -279 -222 -285 0
-251 -216 -279 -255 -285 0
-251 -216 -219 -282 -222 0
-251 -216 -219 -282 -255 0
-251 -216 -219 -282 -285 0
-251 -216 -219 -222 -255 0
-251 -216 -219 -222 -285 0
-251 -216 -219 -255 -285 0
-251 -216 -282 -222 -255 0
-251 -216 -282 -222 -285 0
-251 -216 -282 -255 -285 0
-251 -216 -222 -255 -285 0
-251 -249 -279 -219 -282 0
-251 -249 -279 -219 -222 0
-251 -249 -279 -219 -255 0
-251 -249 -279 -219 -285 0
-251 -249 -279 -282 -222 0
-251 -249 -279 -282 -255 0
-251 -249 -279 -282 -285 0
-251 -249 -279 -222 -255 0
-251 -249 -279 -222 -285 0
-251 -249 -279 -255 -285 0
-251 -249 -219 -282 -222 0
-251 -249 -219 -282 -255 0
-251 -249 -219 -282 -285 0
-251 -249 -219 -222 -255 0
-251 -249 -219 -222 -285 0
-251 -249 -219 -255 -285 0
-251 -249 -282 -222 -255 0
-251 -249 -282 -222 -285 0
-251 -249 -282 -255 -285 0
-251 -249 -222 -255 -285 0
-251 -279 -219 -282 -222 0
-251 -279 -219 -282 -255 0
-251 -279 -219 -282 -285 0
-251 -279 -219 -222 -255 0
-251 -279 -219 -222 -285 0
-251 -279 -219 -255 -285 0
-251 -279 -282 -222 -255 0
-251 -279 -282 -222 -285 0
-251 -279 -282 -255 -285 0
-251 -279 -222 -255 -285 0
-251 -219 -282 -222 -255 0
-251 -219 -282 -222 -285 0
-251 -219 -282 -255 -285 0
-251 -219 -222 -255 -285 0
-251 -282 -222 -255 -285 0
-251 216 249 279 219 282 222 0
-251 216 249 279 219 282 255 0
-251 216 249 279 219 282 285 0
-251 216 249 279 219 222 255 0
-251 216 249 279 219 222 285 0
-251 216 249 279 219 255 285 0
-251 216 249 279 282 222 255 0
-251 216 249 279 282 222 285 0
-251 216 249 279 282 255 285 0
-251 216 249 279 222 255 285 0
-251 216 249 219 282 222 255 0
-251 216 249 219 282 222 285 0
-251 216 249 219 282 255 285 0
-251 216 249 219 222 255 285 0
-251 216 249 282 222 255 285 0
-251 216 279 219 282 222 255 0
-251 216 279 219 282 222 285 0
-251 216 279 219 282 255 285 0
-251 216 279 219 222 255 285 0
-251 216 279 282 222 255 285 0
-251 216 219 282 222 255 285 0
-251 249 279 219 282 222 255 0
-251 249 279 219 282 222 285 0
-251 249 279 219 282 255 285 0
-251 249 279 219 222 255 285 0
-251 249 279 282 222 255 285 0
-251 249 219 282 222 255 285 0
-251 279 219 282 222 255 285 0
-252 -214 -247 -277 -217 -280 0
-252 -214 -247 -277 -217 -220 0
-252 -214 -247 -277 -217 -253 0
-252 -214 -247 -277 -217 -283 0
-252 -214 -247 -277 -280 -220 0
-252 -214 -247 -277 -280 -253 0
-252 -214 -247 -277 -280 -283 0
-252 -214 -247 -277 -220 -253 0
-252 -214 -247 -277 -220 -283 0
-252 -214 -247 -277 -253 -283 0
-252 -214 -247 -217 -280 -220 0
-252 -214 -247 -217 -280 -253 0
-252 -214 -247 -217 -280 -283 0
-252 -214 -247 -217 -220 -253 0
-252 -214 -247 -217 -220 -283 0
-252 -214 -247 -217 -253 -283 0
-252 -214 -247 -280 -220 -253 0
-252 -214 -247 -280 -220 -283 0
-252 -214 -247 -280 -253 -283 0
-252 -214 -247 -220 -253 -283 0
-252 -214 -277 -217 -280 -220 0
-252 -214 -277 -217 -280 -253 0
-252 -214 -277 -217 -280 -283 0
-252 -214 -277 -217 -220 -253 0
-252 -214 -277 -217 -220 -283 0
-252 -214 -277 -217 -253 -283 0
-252 -214 -277 -280 -220 -253 0
-252 -214 -277 -280 -220 -283 0
-252 -214 -277 -280 -253 -283 0
-252 -214 -277 -220 -253 -283 0
-252 -214 -217 -280 -220 -253 0
-252 -214 -217 -280 -220 -283 0
-252 -214 -217 -280 -253 -283 0
-252 -214 -217 -220 -253 -283 0
-252 -214 -280 -220 -253 -283 0
-252 -247 -277 -217 -280 -220 0
-252 -247 -277 -217 -280 -253 0
-252 -247 -277 -217 -280 -283 0
-252 -247 -277 -217 -220 -253 0
-252 -247 -277 -217 -220 -283 0
-252 -247 -277 -217 -253 -283 0
-252 -247 -277 -280 -220 -253 0
-252 -247 -277 -280 -220 -283 0
-252 -247 -277 -280 -253 -283 0
-252 -247 -277 -220 -253 -283 0
-252 -247 -217 -280 -220 -253 0
-252 -247 -217 -280 -220 -283 0
-252 -247 -217 -280 -253 -283 0
-252 -247 -217 -220 -253 -283 0
-252 -247 -280 -220 -253 -283 0
-252 -277 -217 -280 -220 -253 0
-252 -277 -217 -280 -220 -283 0
-252 -277 -217 -280 -253 -283 0
-252 -277 -217 -220 -253 -283 0
-252 -277 -280 -220 -253 -283 0
-252 -217 -280 -220 -253 -283 0
-252 214 247 277 217 280 0
-252 214 247 277 217 220 0
-252 214 247 277 217 253 0
-252 214 247 277 217 283 0
-252 214 247 277 280 220 0
-252 214 247 277 280 253 0
-252 214 247 277 280 283 0
-252 214 247 277 220 253 0
-252 214 247 277 220 283 0
-252 214 247 277 253 283 0
-252 214 247 217 280 220 0
-252 214 247 217 280 253 0
-252 214 247 217 280 283 0
-252 214 247 217 220 253 0
-252 214 247 217 220 283 0
-252 214 247 217 253 283 0
-252 214 247 280 220 253 0
-252 214 247 280 220 283 0
-252 214 247 280 253 283 0
-252 214 247 220 253 283 0
-252 214 277 217 280 220 0
-252 214 277 217 280 253 0
-252 214 277 217 280 283 0
-252 214 277 217 220 253 0
-252 214 277 217 220 283 0
-252 214 277 217 253 283 0
-252 214 277 280 220 253 0
-252 214 277 280 220 283 0
-252 214 277 280 253 283 0
-252 214 277 220 253 283 0
-252 214 217 280 220 253 0
-252 214 217 280 220 283 0
-252 214 217 280 253 283 0
-252 214 217 220 253 283 0
-252 214 280 220 253 283 0
-252 247 277 217 280 220 0
-252 247 277 217 280 253 0
-252 247 277 217 280 283 0
-252 247 277 217 220 253 0
-252 247 277 217 220 283 0
-252 247 277 217 253 283 0
-252 247 277 280 220 253 0
-252 247 277 280 220 283 0
-252 247 277 280 253 283 0
-252 247 277 220 253 283 0
-252 247 217 280 220 253 0
-252 247 217 280 220 283 0
-252 247 217 280 253 283 0
-252 247 217 220 253 283 0
-252 247 280 220 253 283 0
-252 277 217 280 220 253 0
-252 277 217 280 220 283 0
-252 277 217 280 253 283 0
-252 277 217 220 253 283 0
-252 277 280 220 253 283 0
-252 217 280 220 253 283 0
-253 -254 0
-253 -255 0
-254 -255 0
-253 -218 -251 -281 0
-253 -218 -251 -221 0
-253 -218 -251 -284 0
-253 -218 -251 -224 0
-253 -218 -251 -257 0
-253 -218 -251 -287 0
-253 -218 -281 -221 0
-253 -218 -281 -284 0
-253 -218 -281 -224 0
-253 -218 -281 -257 0
-253 -218 -281 -287 0
-253 -218 -221 -284 0
-253 -218 -221 -224 0
-253 -218 -221 -257 0
-253 -218 -221 -287 0
-253 -218 -284 -224 0
-253 -218 -284 -257 0
-253 -218 -284 -287 0
-253 -218 -224 -257 0
-253 -218 -224 -287 0
-253 -218 -257 -287 0
-253 -251 -281 -221 0
-253 -251 -281 -284 0
-253 -251 -281 -224 0
-253 -251 -281 -257 0
-253 -251 -281 -287 0
-253 -251 -221 -284 0
-253 -251 -221 -224 0
-253 -251 -221 -257 0
-253 -251 -221 -287 0
-253 -251 -284 -224 0
-253 -251 -284 -257 0
-253 -251 -284 -287 0
-253 -251 -224 -257 0
-253 -251 -224 -287 0
-253 -251 -257 -287 0
-253 -281 -221 -284 0
-253 -281 -221 -224 0
-253 -281 -221 -257 0
-253 -281 -221 -287 0
-253 -281 -284 -224 0
-253 -281 -284 -257 0
-253 -281 -284 -287 0
-253 -281 -224 -257 0
-253 -281 -224 -287 0
-253 -281 -257 -287 0
-253 -221 -284 -224 0
-253 -221 -284 -257 0
-253 -221 -284 -287 0
-253 -221 -224 -257 0
-253 -221 -224 -287 0
-253 -221 -257 -287 0
-253 -284 -224 -257 0
-253 -284 -224 -287 0
-253 -284 -257 -287 0
-253 -224 -257 -287 0
-253 218 251 281 221 284 224 257 0
-253 218 251 281 221 284 224 287 0
-253 218 251 281 221 284 257 287 0
-253 218 251 281 221 224 257 287 0
-253 218 251 281 284 224 257 287 0
-253 218 251 221 284 224 257 287 0
-253 218 281 221 284 224 257 287 0
-253 251 281 221 284 224 257 287 0
-254 -219 -252 -282 -222 0
-254 -219 -252 -282 -285 0
-254 -219 -252 -282 -225 0
-254 -219 -252 -282 -258 0
-254 -219 -252 -282 -288 0
-254 -219 -252 -222 -285 0
-254 -219 -252 -222 -225 0
-254 -219 -252 -222 -258 0
-254 -219 -252 -222 -288 0
-254 -219 -252 -285 -225 0
-254 -219 -252 -285 -258 0
-254 -219 -252 -285 -288 0
-254 -219 -252 -225 -258 0
-254 -219 -252 -225 -288 0
-254 -219 -252 -258 -288 0
-254 -219 -282 -222 -285 0
-254 -219 -282 -222 -225 0
-254 -219 -282 -222 -258 0
-254 -219 -282 -222 -288 0
-254 -219 -282 -285 -225 0
-254 -219 -282 -285 -258 0
-254 -219 -282 -285 -288 0
-254 -219 -282 -225 -258 0
-254 -219 -282 -225 -288 0
-254 -219 -282 -258 -288 0
-254 -219 -222 -285 -225 0
-254 -219 -222 -285 -258 0
-254 -219 -222 -285 -288 0
-254 -219 -222 -225 -258 0
-254 -219 -222 -225 -288 0
-254 -219 -222 -258 -288 0
-254 -219 -285 -225 -258 0
-254 -219 -285 -225 -288 0
-254 -219 -285 -258 -288 0
-254 -219 -225 -258 -288 0
-254 -252 -282 -222 -285 0
-254 -252 -282 -222 -225 0
-254 -252 -282 -222 -258 0
-254 -252 -282 -222 -288 0
-254 -252 -282 -285 -225 0
-254 -252 -282 -285 -258 0
-254 -252 -282 -285 -288 0
-254 -252 -282 -225 -258 0
-254 -252 -282 -225 -288 0
-254 -252 -282 -258 -288 0
-254 -252 -222 -285 -225 0
-254 -252 -222 -285 -258 0
-254 -252 -222 -285 -288 0
-254 -252 -222 -225 -258 0
-254 -252 -222 -225 -288 0
-254 -252 -222 -258 -288 0
-254 -252 -285 -225 -258 0
-254 -252 -285 -225 -288 0
-254 -252 -285 -258 -288 0
-254 -252 -225 -258 -288 0
-254 -282 -222 -285 -225 0
-254 -282 -222 -285 -258 0
-254 -282 -222 -285 -288 0
-254 -282 -222 -225 -258 0
-254 -282 -222 -225 -288 0
-254 -282 -222 -258 -288 0
-254 -282 -285 -225 -258 0
-254 -282 -285 -225 -288 0
-254 -282 -285 -258 -288 0
-254 -282 -225 -258 -288 0
-254 -222 -285 -225 -258 0
-254 -222 -285 -225 -288 0
-254 -222 -285 -258 -288 0
-254 -222 -225 -258 -288 0
-254 -285 -225 -258 -288 0
-254 219 252 282 222 285 225 0
-254 219 252 282 222 285 258 0
-254 219 252 282 222 285 288 0
-254 219 252 282 222 225 258 0
-254 219 252 282 222 225 288 0
-254 219 252 282 222 258 288 0
-254 219 252 282 285 225 258 0
-254 219 252 282 285 225 288 0
-254 219 252 282 285 258 288 0
-254 219 252 282 225 258 288 0
-254 219 252 222 285 225 258 0
-254 219 252 222 285 225 288 0
-254 219 252 222 285 258 288 0
-254 219 252 222 225 258 288 0
-254 219 252 285 225 258 288 0
-254 219 282 222 285 225 258 0
-254 219 282 222 285 225 288 0
-254 219 282 222 285 258 288 0
-254 219 282 222 225 258 288 0
-254 219 282 285 225 258 288 0
-254 219 222 285 225 258 288 0
-254 252 282 222 285 225 258 0
-254 252 282 222 285 225 288 0
-254 252 282 222 285 258 288 0
-254 252 282 222 225 258 288 0
-254 252 282 285 225 258 288 0
-254 252 222 285 225 258 288 0
-254 282 222 285 225 258 288 0
-255 -217 -250 -280 -220 -283 0
-255 -217 -250 -280 -220 -223 0
-255 -217 -250 -280 -220 -256 0
-255 -217 -250 -280 -220 -286 0
-255 -217 -250 -280 -283 -223 0
-255 -217 -250 -280 -283 -256 0
-255 -217 -250 -280 -283 -286 0
-255 -217 -250 -280 -223 -256 0
-255 -217 -250 -280 -223 -286 0
-255 -217 -250 -280 -256 -286 0
-255 -217 -250 -220 -283 -223 0
-255 -217 -250 -220 -283 -256 0
-255 -217 -250 -220 -283 -286 0
-255 -217 -250 -220 -223 -256 0
-255 -217 -250 -220 -223 -286 0
-255 -217 -250 -220 -256 -286 0
-255 -217 -250 -283 -223 -256 0
-255 -217 -250 -283 -223 -286 0
-255 -217 -250 -283 -256 -286 0
-255 -217 -250 -223 -256 -286 0
-255 -217 -280 -220 -283 -223 0
-255 -217 -280 -220 -283 -256 0
-255 -217 -280 -220 -283 -286 0
-255 -217 -280 -220 -223 -256 0
-255 -217 -280 -220 -223 -286 0
-255 -217 -280 -220 -256 -286 0
-255 -217 -280 -283 -223 -256 0
-255 -217 -280 -283 -223 -286 0
-255 -217 -280 -283 -256 -286 0
-255 -217 -280 -223 -256 -286 0
-255 -217 -220 -283 -223 -256 0
-255 -217 -220 -283 -223 -286 0
-255 -217 -220 -283 -256 -286 0
-255 -217 -220 -223 -256 -286 0
-255 -217 -283 -223 -256 -286 0
-255 -250 -280 -220 -283 -223 0
-255 -250 -280 -220 -283 -256 0
-255 -250 -280 -220 -283 -286 0
-255 -250 -280 -220 -223 -256 0
-255 -250 -280 -220 -223 -286 0
-255 -250 -280 -220 -256 -286 0
-255 -250 -280 -283 -223 -256 0
-255 -250 -280 -283 -223 -286 0
-255 -250 -280 -283 -256 -286 0
-255 -250 -280 -223 -256 -286 0
-255 -250 -220 -283 -223 -256 0
-255 -250 -220 -283 -223 -286 0
-255 -250 -220 -283 -256 -286 0
-255 -250 -220 -223 -256 -286 0
-255 -250 -283 -223 -256 -286 0
-255 -280 -220 -283 -223 -256 0
-255 -280 -220 -283 -223 -286 0
-255 -280 -220 -283 -256 -286 0
-255 -280 -220 -223 -256 -286 0
-255 -280 -283 -223 -256 -286 0
-255 -220 -283 -223 -256 -286 0
-255 217 250 280 220 283 0
-255 217 250 280 220 223 0
-255 217 250 280 220 256 0
-255 217 250 280 220 286 0
-255 217 250 280 283 223 0
-255 217 250 280 283 256 0
-255 217 250 280 283 286 0
-255 217 250 280 223 256 0
-255 217 250 280 223 286 0
-255 217 250 280 256 286 0
-255 217 250 220 283 223 0
-255 217 250 220 283 256 0
-255 217 250 220 283 286 0
-255 217 250 220 223 256 0
-255 217 250 220 223 286 0
-255 217 250 220 256 286 0
-255 217 250 283 223 256 0
-255 217 250 283 223 286 0
-255 217 250 283 256 286 0
-255 217 250 223 256 286 0
-255 217 280 220 283 223 0
-255 217 280 220 283 256 0
-255 217 280 220 283 286 0
-255 217 280 220 223 256 0
-255 217 280 220 223 286 0
-255 217 280 220 256 286 0
-255 217 280 283 223 256 0
-255 217 280 283 223 286 0
-255 217 280 283 256 286 0
-255 217 280 223 256 286 0
-255 217 220 283 223 256 0
-255 217 220 283 223 286 0
-255 217 220 283 256 286 0
-255 217 220 223 256 286 0
-255 217 283 223 256 286 0
-255 250 280 220 283 223 0
-255 250 280 220 283 256 0
-255 250 280 220 283 286 0
-255 250 280 220 223 256 0
-255 250 280 220 223 286 0
-255 250 280 220 256 286 0
-255 250 280 283 223 256 0
-255 250 280 283 223 286 0
-255 250 280 283 256 286 0
-255 250 280 223 256 286 0
-255 250 220 283 223 256 0
-255 250 220 283 223 286 0
-255 250 220 283 256 286 0
-255 250 220 223 256 286 0
-255 250 283 223 256 286 0
-255 280 220 283 223 256 0
-255 280 220 283 223 286 0
-255 280 220 283 256 286 0
-255 280 220 223 256 286 0
-255 280 283 223 256 286 0
-255 220 283 223 256 286 0
-256 -257 0
-256 -258 0
-257 -258 0
-256 -221 -254 -284 0
-256 -221 -254 -224 0
-256 -221 -254 -287 0
-256 -221 -254 -227 0
-256 -221 -254 -260 0
-256 -221 -254 -290 0
-256 -221 -284 -224 0
-256 -221 -284 -287 0
-256 -221 -284 -227 0
-256 -221 -284 -260 0
-256 -221 -284 -290 0
-256 -221 -224 -287 0
-256 -221 -224 -227 0
-256 -221 -224 -260 0
-256 -221 -224 -290 0
-256 -221 -287 -227 0
-256 -221 -287 -260 0
-256 -221 -287 -290 0
-256 -221 -227 -260 0
-256 -221 -227 -290 0
-256 -221 -260 -290 0
-256 -254 -284 -224 0
-256 -254 -284 -287 0
-256 -254 -284 -227 0
-256 -254 -284 -260 0
-256 -254 -284 -290 0
-256 -254 -224 -287 0
-256 -254 -224 -227 0
-256 -254 -224 -260 0
-256 -254 -224 -290 0
-256 -254 -287 -227 0
-256 -254 -287 -260 0
-256 -254 -287 -290 0
-256 -254 -227 -260 0
-256 -254 -227 -290 0
-256 -254 -260 -290 0
-256 -284 -224 -287 0
-256 -284 -224 -227 0
-256 -284 -224 -260 0
-256 -284 -224 -290 0
-256 -284 -287 -227 0
-256 -284 -287 -260 0
-256 -284 -287 -290 0
-256 -284 -227 -260 0
-256 -284 -227 -290 0
-256 -284 -260 -290 0
-256 -224 -287 -227 0
-256 -224 -287 -260 0
-256 -224 -287 -290 0
-256 -224 -227 -260 0
-256 -224 -227 -290 0
-256 -224 -260 -290 0
-256 -287 -227 -260 0
-256 -287 -227 -290 0
-256 -287 -260 -290 0
-256 -227 -260 -290 0
-256 221 254 284 224 287 227 260 0
-256 221 254 284 224 287 227 290 0
-256 221 254 284 224 287 260 290 0
-256 221 254 284 224 227 260 290 0
-256 221 254 284 287 227 260 290 0
-256 221 254 224 287 227 260 290 0
-256 221 284 224 287 227 260 290 0
-256 254 284 224 287 227 260 290 0
-257 -222 -255 -285 -225 0
-257 -222 -255 -285 -288 0
-257 -222 -255 -285 -228 0
-257 -222 -255 -285 -261 0
-257 -222 -255 -285 -291 0
-257 -222 -255 -225 -288 0
-257 -222 -255 -225 -228 0
-257 -222 -255 -225 -261 0
-257 -222 -255 -225 -291 0
-257 -222 -255 -288 -228 0
-257 -222 -255 -288 -261 0
-257 -222 -255 -288 -291 0
-257 -222 -255 -228 -261 0
-257 -222 -255 -228 -291 0
-257 -222 -255 -261 -291 0
-257 -222 -285 -225 -288 0
-257 -222 -285 -225 -228 0
-257 -222 -285 -225 -261 0
-257 -222 -285 -225 -291 0
-257 -222 -285 -288 -228 0
-257 -222 -285 -288 -261 0
-257 -222 -285 -288 -291 0
-257 -222 -285 -228 -261 0
-257 -222 -285 -228 -291 0
-257 -222 -285 -261 -291 0
-257 -222 -225 -288 -228 0
-257 -222 -225 -288 -261 0
-257 -222 -225 -288 -291 0
-257 -222 -225 -228 -261 0
-257 -222 -225 -228 -291 0
-257 -222 -225 -261 -291 0
-257 -222 -288 -228 -261 0
-257 -222 -288 -228 -291 0
-257 -222 -288 -261 -291 0
-257 -222 -228 -261 -291 0
-257 -255 -285 -225 -288 0
-257 -255 -285 -225 -228 0
-257 -255 -285 -225 -261 0
-257 -255 -285 -225 -291 0
-257 -255 -285 -288 -228 0
-257 -255 -285 -288 -261 0
-257 -255 -285 -288 -291 0
-257 -255 -285 -228 -261 0
-257 -255 -285 -228 -291 0
-257 -255 -285 -261 -291 0
-257 -255 -225 -288 -228 0
-257 -255 -225 -288 -261 0
-257 -255 -225 -288 -291 0
-257 -255 -225 -228 -261 0
-257 -255 -225 -228 -291 0
-257 -255 -225 -261 -291 0
-257 -255 -288 -228 -261 0
-257 -255 -288 -228 -291 0
-257 -255 -288 -261 -291 0
-257 -255 -228 -261 -291 0
-257 -285 -225 -288 -228 0
-257 -285 -225 -288 -261 0
-257 -285 -225 -288 -291 0
-257 -285 -225 -228 -261 0
-257 -285 -225 -228 -291 0
-257 -285 -225 -261 -291 0
-257 -285 -288 -228 -261 0
-257 -285 -288 -228 -291 0
-257 -285 -288 -261 -291 0
-257 -285 -228 -261 -291 0
-257 -225 -288 -228 -261 0
-257 -225 -288 -228 -291 0
-257 -225 -288 -261 -291 0
-257 -225 -228 -261 -291 0
-257 -288 -228 -261 -291 0
-257 222 255 285 225 288 228 0
-257 222 255 285 225 288 261 0
-257 222 255 285 225 288 291 0
-257 222 255 285 225 228 261 0
-257 222 255 285 225 228 291 0
-257 222 255 285 225 261 291 0
-257 222 255 285 288 228 261 0
-257 222 255 285 288 228 291 0
-257 222 255 285 288 261 291 0
-257 222 255 285 228 261 291 0
-257 222 255 225 288 228 261 0
-257 222 255 225 288 228 291 0
-257 222 255 225 288 261 291 0
-257 222 255 225 228 261 291 0
-257 222 255 288 228 261 291 0
-257 222 285 225 288 228 261 0
-257 222 285 225 288 228 291 0
-257 222 285 225 288 261 291 0
-257 222 285 225 228 261 291 0
-257 222 285 288 228 261 291 0
-257 222 225 288 228 261 291 0
-257 255 285 225 288 228 261 0
-257 255 285 225 288 228 291 0
-257 255 285 225 288 261 291 0
-257 255 285 225 228 261 291 0
-257 255 285 288 228 261 291 0
-257 255 225 288 228 261 291 0
-257 285 225 288 228 261 291 0
-258 -220 -253 -283 -223 -286 0
-258 -220 -253 -283 -223 -226 0
-258 -220 -253 -283 -223 -259 0
-258 -220 -253 -283 -223 -289 0
-258 -220 -253 -283 -286 -226 0
-258 -220 -253 -283 -286 -259 0
-258 -220 -253 -283 -286 -289 0
-258 -220 -253 -283 -226 -259 0
-258 -220 -253 -283 -226 -289 0
-258 -220 -253 -283 -259 -289 0
-258 -220 -253 -223 -286 -226 0
-258 -220 -253 -223 -286 -259 0
-258 -220 -253 -223 -286 -289 0
-258 -220 -253 -223 -226 -259 0
-258 -220 -253 -223 -226 -289 0
-258 -220 -253 -223 -259 -289 0
-258 -220 -253 -286 -226 -259 0
-258 -220 -253 -286 -226 -289 0
-258 -220 -253 -286 -259 -289 0
-258 -220 -253 -226 -259 -289 0
-258 -220 -283 -223 -286 -226 0
-258 -220 -283 -223 -286 -259 0
-258 -220 -283 -223 -286 -289 0
-258 -220 -283 -223 -226 -259 0
-258 -220 -283 -223 -226 -289 0
-258 -220 -283 -223 -259 -289 0
-258 -220 -283 -286 -226 -259 0
-258 -220 -283 -286 -226 -289 0
-258 -220 -283 -286 -259 -289 0
-258 -220 -283 -226 -259 -289 0
-258 -220 -223 -286 -226 -259 0
-258 -220 -223 -286 -226 -289 0
-258 -220 -223 -286 -259 -289 0
-258 -220 -223 -226 -259 -289 0
-258 -220 -286 -226 -259 -289 0
-258 -253 -283 -223 -286 -226 0
-258 -253 -283 -223 -286 -259 0
-258 -253 -283 -223 -286 -289 0
-258 -253 -283 -223 -226 -259 0
-258 -253 -283 -223 -226 -289 0
-258 -253 -283 -223 -259 -289 0
-258 -253 -283 -286 -226 -259 0
-258 -253 -283 -286 -226 -289 0
-258 -253 -283 -286 -259 -289 0
-258 -253 -283 -226 -259 -289 0
-258 -253 -223 -286 -226 -259 0
-258 -253 -223 -286 -226 -289 0
-258 -253 -223 -286 -259 -289 0
-258 -253 -223 -226 -259 -289 0
-258 -253 -286 -226 -259 -289 0
-258 -283 -223 -286 -226 -259 0
-258 -283 -223 -286 -226 -289 0
-258 -283 -223 -286 -259 -289 0
-258 -283 -223 -226 -259 -289 0
-258 -283 -286 -226 -259 -289 0
-258 -223 -286 -226 -259 -289 0
-258 220 253 283 223 286 0
-258 220 253 283 223 226 0
-258 220 253 283 223 259 0
-258 220 253 283 223 289 0
-258 220 253 283 286 226 0
-258 220 253 283 286 259 0
-258 220 253 283 286 289 0
-258 220 253 283 226 259 0
-258 220 253 283 226 289 0
-258 220 253 283 259 289 0
-258 220 253 223 286 226 0
-258 220 253 223 286 259 0
-258 220 253 223 286 289 0
-258 220 253 223 226 259 0
-258 220 253 223 226 289 0
-258 220 253 223 259 289 0
-258 220 253 286 226 259 0
-258 220 253 286 226 289 0
-258 220 253 286 259 289 0
-258 220 253 226 259 289 0
-258 220 283 223 286 226 0
-258 220 283 223 286 259 0
-258 220 283 223 286 289 0
-258 220 283 223 226 259 0
-258 220 283 223 226 289 0
-258 220 283 223 259 289 0
-258 220 283 286 226 259 0
-258 220 283 286 226 289 0
-258 220 283 286 259 289 0
-258 220 283 226 259 289 0
-258 220 223 286 226 259 0
-258 220 223 286 226 289 0
-258 220 223 286 259 289 0
-258 220 223 226 259 289 0
-258 220 286 226 259 289 0
-258 253 283 223 286 226 0
-258 253 283 223 286 259 0
-258 253 283 223 286 289 0
-258 253 283 223 226 259 0
-258 253 283 223 226 289 0
-258 253 283 223 259 289 0
-258 253 283 286 226 259 0
-258 253 283 286 226 289 0
-258 253 283 286 259 289 0
-258 253 283 226 259 289 0
-258 253 223 286 226 259 0
-258 253 223 286 226 289 0
-258 253 223 286 259 289 0
-258 253 223 226 259 289 0
-258 253 286 226 259 289 0
-258 283 223 286 226 259 0
-258 283 223 286 226 289 0
-258 283 223 286 259 289 0
-258 283 223 226 259 289 0
-258 283 286 226 259 289 0
-258 223 286 226 259 289 0
-259 -260 0
-259 -261 0
-260 -261 0
-259 -224 -257 -287 0
-259 -224 -257 -227 0
-259 -224 -257 -290 0
-259 -224 -257 -230 0
-259 -224 -257 -263 0
-259 -224 -257 -293 0
-259 -224 -287 -227 0
-259 -224 -287 -290 0
-259 -224 -287 -230 0
-259 -224 -287 -263 0
-259 -224 -287 -293 0
-259 -224 -227 -290 0
-259 -224 -227 -230 0
-259 -224 -227 -263 0
-259 -224 -227 -293 0
-259 -224 -290 -230 0
-259 -224 -290 -263 0
-259 -224 -290 -293 0
-259 -224 -230 -263 0
-259 -224 -230 -293 0
-259 -224 -263 -293 0
-259 -257 -287 -227 0
-259 -257 -287 -290 0
-259 -257 -287 -230 0
-259 -257 -287 -263 0
-259 -257 -287 -293 0
-259 -257 -227 -290 0
-259 -257 -227 -230 0
-259 -257 -227 -263 0
-259 -257 -227 -293 0
-259 -257 -290 -230 0
-259 -257 -290 -263 0
-259 -257 -290 -293 0
-259 -257 -230 -263 0
-259 -257 -230 -293 0
-259 -257 -263 -293 0
-259 -287 -227 -290 0
-259 -287 -227 -230 0
-259 -287 -227 -263 0
-259 -287 -227 -293 0
-259 -287 -290 -230 0
-259 -287 -290 -263 0
-259 -287 -290 -293 0
-259 -287 -230 -263 0
-259 -287 -230 -293 0
-259 -287 -263 -293 0
-259 -227 -290 -230 0
-259 -227 -290 -263 0
-259 -227 -290 -293 0
-259 -227 -230 -263 0
-259 -227 -230 -293 0
-259 -227 -263 -293 0
-259 -290 -230 -263 0
-259 -290 -230 -293 0
-259 -290 -263 -293 0
-259 -230 -263 -293 0
-259 224 257 287 227 290 230 263 0
-259 224 257 287 227 290 230 293 0
-259 224 257 287 227 290 263 293 0
-259 224 257 287 227 230 263 293 0
-259 224 257 287 290 230 263 293 0
-259 224 257 227 290 230 263 293 0
-259 224 287 227 290 230 263 293 0
-259 257 287 227 290 230 263 293 0
-260 -225 -258 -288 -228 0
-260 -225 -258 -288 -291 0
-260 -225 -258 -288 -231 0
-260 -225 -258 -288 -264 0
-260 -225 -258 -288 -294 0
-260 -225 -258 -228 -291 0
-260 -225 -258 -228 -231 0
-260 -225 -258 -228 -264 0
-260 -225 -258 -228 -294 0
-260 -225 -258 -291 -231 0
-260 -225 -258 -291 -264 0
-260 -225 -258 -291 -294 0
-260 -225 -258 -231 -264 0
-260 -225 -258 -231 -294 0
-260 -225 -258 -264 -294 0
-260 -225 -288 -228 -291 0
-260 -225 -288 -228 -231 0
-260 -225 -288 -228 -264 0
-260 -225 -288 -228 -294 0
-260 -225 -288 -291 -231 0
-260 -225 -288 -291 -264 0
-260 -225 -288 -291 -294 0
-260 -225 -288 -231 -264 0
-260 -225 -288 -231 -294 0
-260 -225 -288 -264 -294 0
-260 -225 -228 -291 -231 0
-260 -225 -228 -291 -264 0
-260 -225 -228 -291 -294 0
-260 -225 -228 -231 -264 0
-260 -225 -228 -231 -294 0
-260 -225 -228 -264 -294 0
-260 -225 -291 -231 -264 0
-260 -225 -291 -231 -294 0
-260 -225 -291 -264 -294 0
-260 -225 -231 -264 -294 0
-260 -258 -288 -228 -291 0
-260 -258 -288 -228 -231 0
-260 -258 -288 -228 -264 0
-260 -258 -288 -228 -294 0
-260 -258 -288 -291 -231 0
-260 -258 -288 -291 -264 0
-260 -258 -288 -291 -294 0
-260 -258 -288 -231 -264 0
-260 -258 -288 -231 -294 0
-260 -258 -288 -264 -294 0
-260 -258 -228 -291 -231 0
-260 -258 -228 -291 -264 0
-260 -258 -228 -291 -294 0
-260 -258 -228 -231 -264 0
-260 -258 -228 -231 -294 0
-260 -258 -228 -264 -294 0
-260 -258 -291 -231 -264 0
-260 -258 -291 -231 -294 0
-260 -258 -291 -264 -294 0
-260 -258 -231 -264 -294 0
-260 -288 -228 -291 -231 0
-260 -288 -228 -291 -264 0
-260 -288 -228 -291 -294 0
-260 -288 -228 -231 -264 0
-260 -288 -228 -231 -294 0
-260 -288 -228 -264 -294 0
-260 -288 -291 -231 -264 0
-260 -288 -291 -231 -294 0
-260 -288 -291 -264 -294 0
-260 -288 -231 -264 -294 0
-260 -228 -291 -231 -264 0
-260 -228 -291 -231 -294 0
-260 -228 -291 -264 -294 0
-260 -228 -231 -264 -294 0
-260 -291 -231 -264 -294 0
-260 225 258 288 228 291 231 0
-260 225 258 288 228 291 264 0
-260 225 258 288 228 291 294 0
-260 225 258 288 228 231 264 0
-260 225 258 288 228 231 294 0
-260 225 258 288 228 264 294 0
-260 225 258 288 291 231 264 0
-260 225 258 288 291 231 294 0
-260 225 258 288 291 264 294 0
-260 225 258 288 231 264 294 0
-260 225 258 228 291 231 264 0
-260 225 258 228 291 231 294 0
-260 225 258 228 291 264 294 0
-260 225 258 228 231 264 294 0
-260 225 258 291 231 264 294 0
-260 225 288 228 291 231 264 0
-260 225 288 228 291 231 294 0
-260 225 288 228 291 264 294 0
-260 225 288 228 231 264 294 0
-260 225 288 291 231 264 294 0
-260 225 228 291 231 264 294 0
-260 258 288 228 291 231 264 0
-260 258 288 228 291 231 294 0
-260 258 288 228 291 264 294 0
-260 258 288 228 231 264 294 0
-260 258 288 291 231 264 294 0
-260 258 228 291 231 264 294 0
-260 288 228 291 231 264 294 0
-261 -223 -256 -286 -226 -289 0
-261 -223 -256 -286 -226 -229 0
-261 -223 -256 -286 -226 -262 0
-261 -223 -256 -286 -226 -292 0
-261 -223 -256 -286 -289 -229 0
-261 -223 -256 -286 -289 -262 0
-261 -223 -256 -286 -289 -292 0
-261 -223 -256 -286 -229 -262 0
-261 -223 -256 -286 -229 -292 0
-261 -223 -256 -286 -262 -292 0
-261 -223 -256 -226 -289 -229 0
-261 -223 -256 -226 -289 -262 0
-261 -223 -256 -226 -289 -292 0
-261 -223 -256 -226 -229 -262 0
-261 -223 -256 -226 -229 -292 0
-261 -223 -256 -226 -262 -292 0
-261 -223 -256 -289 -229 -262 0
-261 -223 -256 -289 -229 -292 0
-261 -223 -256 -289 -262 -292 0
-261 -223 -256 -229 -262 -292 0
-261 -223 -286 -226 -289 -229 0
-261 -223 -286 -226 -289 -262 0
-261 -223 -286 -226 -289 -292 0
-261 -223 -286 -226 -229 -262 0
-261 -223 -286 -226 -229 -292 0
-261 -223 -286 -226 -262 -292 0
-261 -223 -286 -289 -229 -262 0
-261 -223 -286 -289 -229 -292 0
-261 -223 -286 -289 -262 -292 0
-261 -223 -286 -229 -262 -292 0
-261 -223 -226 -289 -229 -262 0
-261 -223 -226 -289 -229 -292 0
-261 -223 -226 -289 -262 -292 0
-261 -223 -226 -229 -262 -292 0
-261 -223 -289 -229 -262 -292 0
-261 -256 -286 -226 -289 -229 0
-261 -256 -286 -226 -289 -262 0
-261 -256 -286 -226 -289 -292 0
-261 -256 -286 -226 -229 -262 0
-261 -256 -286 -226 -229 -292 0
-261 -256 -286 -226 -262 -292 0
-261 -256 -286 -289 -229 -262 0
-261 -256 -286 -289 -229 -292 0
-261 -256 -286 -289 -262 -292 0
-261 -256 -286 -229 -262 -292 0
-261 -256 -226 -289 -229 -262 0
-261 -256 -226 -289 -229 -292 0
-261 -256 -226 -289 -262 -292 0
-261 -256 -226 -229 -262 -292 0
-261 -256 -289 -229 -262 -292 0
-261 -286 -226 -289 -229 -262 0
-261 -286 -226 -289 -229 -292 0
-261 -286 -226 -289 -262 -292 0
-261 -286 -226 -229 -262 -292 0
-261 -286 -289 -229 -262 -292 0
-261 -226 -289 -229 -262 -292 0
-261 223 256 286 226 289 0
-261 223 256 286 226 229 0
-261 223 256 286 226 262 0
-261 223 256 286 226 292 0
-261 223 256 286 289 229 0
-261 223 256 286 289 262 0
-261 223 256 286 289 292 0
-261 223 256 286 229 262 0
-261 223 256 286 229 292 0
-261 223 256 286 262 292 0
-261 223 256 226 289 229 0
-261 223 256 226 289 262 0
-261 223 256 226 289 292 0
-261 223 256 226 229 262 0
-261 223 256 226 229 292 0
-261 223 256 226 262 292 0
-261 223 256 289 229 262 0
-261 223 256 289 229 292 0
-261 223 256 289 262 292 0
-261 223 256 229 262 292 0
-261 223 286 226 289 229 0
-261 223 286 226 289 262 0
-261 223 286 226 289 292 0
-261 223 286 226 229 262 0
-261 223 286 226 229 292 0
-261 223 286 226 262 292 0
-261 223 286 289 229 262 0
-261 223 286 289 229 292 0
-261 223 286 289 262 292 0
-261 223 286 229 262 292 0
-261 223 226 289 229 262 0
-261 223 226 289 229 292 0
-261 223 226 289 262 292 0
-261 223 226 229 262 292 0
-261 223 289 229 262 292 0
-261 256 286 226 289 229 0
-261 256 286 226 289 262 0
-261 256 286 226 289 292 0
-261 256 286 226 229 262 0
-261 256 286 226 229 292 0
-261 256 286 226 262 292 0
-261 256 286 289 229 262 0
-261 256 286 289 229 292 0
-261 256 286 289 262 292 0
-261 256 286 229 262 292 0
-261 256 226 289 229 262 0
-261 256 226 289 229 292 0
-261 256 226 289 262 292 0
-261 256 226 229 262 292 0
-261 256 289 229 262 292 0
-261 286 226 289 229 262 0
-261 286 226 289 229 292 0
-261 286 226 289 262 292 0
-261 286 226 229 262 292 0
-261 286 289 229 262 292 0
-261 226 289 229 262 292 0
-262 -263 0
-262 -264 0
-263 -264 0
-262 -227 -260 -290 0
-262 -227 -260 -230 0
-262 -227 -260 -293 0
-262 -227 -260 -233 0
-262 -227 -260 -266 0
-262 -227 -260 -296 0
-262 -227 -290 -230 0
-262 -227 -290 -293 0
-262 -227 -290 -233 0
-262 -227 -290 -266 0
-262 -227 -290 -296 0
-262 -227 -230 -293 0
-262 -227 -230 -233 0
-262 -227 -230 -266 0
-262 -227 -230 -296 0
-262 -227 -293 -233 0
-262 -227 -293 -266 0
-262 -227 -293 -296 0
-262 -227 -233 -266 0
-262 -227 -233 -296 0
-262 -227 -266 -296 0
-262 -260 -290 -230 0
-262 -260 -290 -293 0
-262 -260 -290 -233 0
-262 -260 -290 -266 0
-262 -260 -290 -296 0
-262 -260 -230 -293 0
-262 -260 -230 -233 0
-262 -260 -230 -266 0
-262 -260 -230 -296 0
-262 -260 -293 -233 0
-262 -260 -293 -266 0
-262 -260 -293 -296 0
-262 -260 -233 -266 0
-262 -260 -233 -296 0
-262 -260 -266 -296 0
-262 -290 -230 -293 0
-262 -290 -230 -233 0
-262 -290 -230 -266 0
-262 -290 -230 -296 0
-262 -290 -293 -233 0
-262 -290 -293 -266 0
-262 -290 -293 -296 0
-262 -290 -233 -266 0
-262 -290 -233 -296 0
-262 -290 -266 -296 0
-262 -230 -293 -233 0
-262 -230 -293 -266 0
-262 -230 -293 -296 0
-262 -230 -233 -266 0
-262 -230 -233 -296 0
-262 -230 -266 -296 0
-262 -293 -233 -266 0
-262 -293 -233 -296 0
-262 -293 -266 -296 0
-262 -233 -266 -296 0
-262 227 260 290 230 293 233 266 0
-262 227 260 290 230 293 233 296 0
-262 227 260 290 230 293 266 296 0
-262 227 260 290 230 233 266 296 0
-262 227 260 290 293 233 266 296 0
-262 227 260 230 293 233 266 296 0
-262 227 290 230 293 233 266 296 0
-262 260 290 230 293 233 266 296 0
-263 -228 -261 -291 -231 0
-263 -228 -261 -291 -294 0
-263 -228 -261 -291 -234 0
-263 -228 -261 -291 -267 0
-263 -228 -261 -291 -297 0
-263 -228 -261 -231 -294 0
-263 -228 -261 -231 -234 0
-263 -228 -261 -231 -267 0
-263 -228 -261 -231 -297 0
-263 -228 -261 -294 -234 0
-263 -228 -261 -294 -267 0
-263 -228 -261 -294 -297 0
-263 -228 -261 -234 -267 0
-263 -228 -261 -234 -297 0
-263 -228 -261 -267 -297 0
-263 -228 -291 -231 -294 0
-263 -228 -291 -231 -234 0
-263 -228 -291 -231 -267 0
-263 -228 -291 -231 -297 0
-263 -228 -291 -294 -234 0
-263 -228 -291 -294 -267 0
-263 -228 -291 -294 -297 0
-263 -228 -291 -234 -267 0
-263 -228 -291 -234 -297 0
-263 -228 -291 -267 -297 0
-263 -228 -231 -294 -234 0
-263 -228 -231 -294 -267 0
-263 -228 -231 -294 -297 0
-263 -228 -231 -234 -267 0
-263 -228 -231 -234 -297 0
-263 -228 -231 -267 -297 0
-263 -228 -294 -234 -267 0
-263 -228 -294 -234 -297 0
-263 -228 -294 -267 -297 0
-263 -228 -234 -267 -297 0
-263 -261 -291 -231 -294 0
-263 -261 -291 -231 -234 0
-263 -261 -291 -231 -267 0
-263 -261 -291 -231 -297 0
-263 -261 -291 -294 -234 0
-263 -261 -291 -294 -267 0
-263 -261 -291 -294 -297 0
-263 -261 -291 -234 -267 0
-263 -261 -291 -234 -297 0
-263 -261 -291 -267 -297 0
-263 -261 -231 -294 -234 0
-263 -261 -231 -294 -267 0
-263 -261 -231 -294 -297 0
-263 -261 -231 -234 -267 0
-263 -261 -231 -234 -297 0
-263 -261 -231 -267 -297 0
-263 -261 -294 -234 -267 0
-263 -261 -294 -234 -297 0
-263 -261 -294 -267 -297 0
-263 -261 -234 -267 -297 0
-263 -291 -231 -294 -234 0
-263 -291 -231 -294 -267 0
-263 -291 -231 -294 -297 0
-263 -291 -231 -234 -267 0
-263 -291 -231 -234 -297 0
-263 -291 -231 -267 -297 0
-263 -291 -294 -234 -267 0
-263 -291 -294 -234 -297 0
-263 -291 -294 -267 -297 0
-263 -291 -234 -267 -297 0
-263 -231 -294 -234 -267 0
-263 -231 -294 -234 -297 0
-263 -231 -294 -267 -297 0
-263 -231 -234 -267 -297 0
-263 -294 -234 -267 -297 0
-263 228 261 291 231 294 234 0
-263 228 261 291 231 294 267 0
-263 228 261 291 231 294 297 0
-263 228 261 291 231 234 267 0
-263 228 261 291 231 234 297 0
-263 228 261 291 231 267 297 0
-263 228 261 291 294 234 267 0
-263 228 261 291 294 234 297 0
-263 228 261 291 294 267 297 0
-263 228 261 291 234 267 297 0
-263 228 261 231 294 234 267 0
-263 228 261 231 294 234 297 0
-263 228 261 231 294 267 297 0
-263 228 261 231 234 267 297 0
-263 228 261 294 234 267 297 0
-263 228 291 231 294 234 267 0
-263 228 291 231 294 234 297 0
-263 228 291 231 294 267 297 0
-263 228 291 231 234 267 297 0
-263 228 291 294 234 267 297 0
-263 228 231 294 234 267 297 0
-263 261 291 231 294 234 267 0
-263 261 291 231 294 234 297 0
-263 261 291 231 294 267 297 0
-263 261 291 231 234 267 297 0
-263 261 291 294 234 267 297 0
-263 261 231 294 234 267 297 0
-263 291 231 294 234 267 297 0
-264 -226 -259 -289 -229 -292 0
-264 -226 -259 -289 -229 -232 0
-264 -226 -259 -289 -229 -265 0
-264 -226 -259 -289 -229 -295 0
-264 -226 -259 -289 -292 -232 0
-264 -226 -259 -289 -292 -265 0
-264 -226 -259 -289 -292 -295 0
-264 -226 -259 -289 -232 -265 0
-264 -226 -259 -289 -232 -295 0
-264 -226 -259 -289 -265 -295 0
-264 -226 -259 -229 -292 -232 0
-264 -226 -259 -229 -292 -265 0
-264 -226 -259 -229 -292 -295 0
-264 -226 -259 -229 -232 -265 0
-264 -226 -259 -229 -232 -295 0
-264 -226 -259 -229 -265 -295 0
-264 -226 -259 -292 -232 -265 0
-264 -226 -259 -292 -232 -295 0
-264 -226 -259 -292 -265 -295 0
-264 -226 -259 -232 -265 -295 0
-264 -226 -289 -229 -292 -232 0
-264 -226 -289 -229 -292 -265 0
-264 -226 -289 -229 -292 -295 0
-264 -226 -289 -229 -232 -265 0
-264 -226 -289 -229 -232 -295 0
-264 -226 -289 -229 -265 -295 0
-264 -226 -289 -292 -232 -265 0
-264 -226 -289 -292 -232 -295 0
-264 -226 -289 -292 -265 -295 0
-264 -226 -289 -232 -265 -295 0
-264 -226 -229 -292 -232 -265 0
-264 -226 -229 -292 -232 -295 0
-264 -226 -229 -292 -265 -295 0
-264 -226 -229 -232 -265 -295 0
-264 -226 -292 -232 -265 -295 0
-264 -259 -289 -229 -292 -232 0
-264 -259 -289 -229 -292 -265 0
-264 -259 -289 -229 -292 -295 0
-264 -259 -289 -229 -232 -265 0
-264 -259 -289 -229 -232 -295 0
-264 -259 -289 -229 -265 -295 0
-264 -259 -289 -292 -232 -265 0
-264 -259 -289 -292 -232 -295 0
-264 -259 -289 -292 -265 -295 0
-264 -259 -289 -232 -265 -295 0
-264 -259 -229 -292 -232 -265 0
-264 -259 -229 -292 -232 -295 0
-264 -259 -229 -292 -265 -295 0
-264 -259 -229 -232 -265 -295 0
-264 -259 -292 -232 -265 -295 0
-264 -289 -229 -292 -232 -265 0
-264 -289 -229 -292 -232 -295 0
-264 -289 -229 -292 -265 -295 0
-264 -289 -229 -232 -265 -295 0
-264 -289 -292 -232 -265 -295 0
-264 -229 -292 -232 -265 -295 0
-264 226 259 289 229 292 0
-264 226 259 289 229 232 0
-264 226 259 289 229 265 0
-264 226 259 289 229 295 0
-264 226 259 289 292 232 0
-264 226 259 289 292 265 0
-264 226 259 289 292 295 0
-264 226 259 289 232 265 0
-264 226 259 289 232 295 0
-264 226 259 289 265 295 0
-264 226 259 229 292 232 0
-264 226 259 229 292 265 0
-264 226 259 229 292 295 0
-264 226 259 229 232 265 0
-264 226 259 229 232 295 0
-264 226 259 229 265 295 0
-264 226 259 292 232 265 0
-264 226 259 292 232 295 0
-264 226 259 292 265 295 0
-264 226 259 232 265 295 0
-264 226 289 229 292 232 0
-264 226 289 229 292 265 0
-264 226 289 229 292 295 0
-264 226 289 229 232 265 0
-264 226 289 229 232 295 0
-264 226 289 229 265 295 0
-264 226 289 292 232 265 0
-264 226 289 292 232 295 0
-264 226 289 292 265 295 0
-264 226 289 232 265 295 0
-264 226 229 292 232 265 0
-264 226 229 292 232 295 0
-264 226 229 292 265 295 0
-264 226 229 232 265 295 0
-264 226 292 232 265 295 0
-264 259 289 229 292 232 0
-264 259 289 229 292 265 0
-264 259 289 229 292 295 0
-264 259 289 229 232 265 0
-264 259 289 229 232 295 0
-264 259 289 229 265 295 0
-264 259 289 292 232 265 0
-264 259 289 292 232 295 0
-264 259 289 292 265 295 0
-264 259 289 232 265 295 0
-264 259 229 292 232 265 0
-264 259 229 292 232 295 0
-264 259 229 292 265 295 0
-264 259 229 232 265 295 0
-264 259 292 232 265 295 0
-264 289 229 292 232 265 0
-264 289 229 292 232 295 0
-264 289 229 292 265 295 0
-264 289 229 232 265 295 0
-264 289 292 232 265 295 0
-264 229 292 232 265 295 0
-265 -266 0
-265 -267 0
-266 -267 0
-265 -230 -263 -293 0
-265 -230 -263 -233 0
-265 -230 -263 -296 0
-265 -230 -263 -236 0
-265 -230 -263 -269 0
-265 -230 -263 -299 0
-265 -230 -293 -233 0
-265 -230 -293 -296 0
-265 -230 -293 -236 0
-265 -230 -293 -269 0
-265 -230 -293 -299 0
-265 -230 -233 -296 0
-265 -230 -233 -236 0
-265 -230 -233 -269 0
-265 -230 -233 -299 0
-265 -230 -296 -236 0
-265 -230 -296 -269 0
-265 -230 -296 -299 0
-265 -230 -236 -269 0
-265 -230 -236 -299 0
-265 -230 -269 -299 0
-265 -263 -293 -233 0
-265 -263 -293 -296 0
-265 -263 -293 -236 0
-265 -263 -293 -269 0
-265 -263 -293 -299 0
-265 -263 -233 -296 0
-265 -263 -233 -236 0
-265 -263 -233 -269 0
-265 -263 -233 -299 0
-265 -263 -296 -236 0
-265 -263 -296 -269 0
-265 -263 -296 -299 0
-265 -263 -236 -269 0
-265 -263 -236 -299 0
-265 -263 -269 -299 0
-265 -293 -233 -296 0
-265 -293 -233 -236 0
-265 -293 -233 -269 0
-265 -293 -233 -299 0
-265 -293 -296 -236 0
-265 -293 -296 -269 0
-265 -293 -296 -299 0
-265 -293 -236 -269 0
-265 -293 -236 -299 0
-265 -293 -269 -299 0
-265 -233 -296 -236 0
-265 -233 -296 -269 0
-265 -233 -296 -299 0
-265 -233 -236 -269 0
-265 -233 -236 -299 0
-265 -233 -269 -299 0
-265 -296 -236 -269 0
-265 -296 -236 -299 0
-265 -296 -269 -299 0
-265 -236 -269 -299 0
-265 230 263 293 233 296 236 269 0
-265 230 263 293 233 296 236 299 0
-265 230 263 293 233 296 269 299 0
-265 230 263 293 233 236 269 299 0
-265 230 263 293 296 236 269 299 0
-265 230 263 233 296 236 269 299 0
-265 230 293 233 296 236 269 299 0
-265 263 293 233 296 236 269 299 0
-266 -231 -264 -294 -234 0
-266 -231 -264 -294 -297 0
-266 -231 -264 -294 -237 0
-266 -231 -264 -294 -270 0
-266 -231 -264 -294 -300 0
-266 -231 -264 -234 -297 0
-266 -231 -264 -234 -237 0
-266 -231 -264 -234 -270 0
-266 -231 -264 -234 -300 0
-266 -231 -264 -297 -237 0
-266 -231 -264 -297 -270 0
-266 -231 -264 -297 -300 0
-266 -231 -264 -237 -270 0
-266 -231 -264 -237 -300 0
-266 -231 -264 -270 -300 0
-266 -231 -294 -234 -297 0
-266 -231 -294 -234 -237 0
-266 -231 -294 -234 -270 0
-266 -231 -294 -234 -300 0
-266 -231 -294 -297 -237 0
-266 -231 -294 -297 -270 0
-266 -231 -294 -297 -300 0
-266 -231 -294 -237 -270 0
-266 -231 -294 -237 -300 0
-266 -231 -294 -270 -300 0
-266 -231 -234 -297 -237 0
-266 -231 -234 -297 -270 0
-266 -231 -234 -297 -300 0
-266 -231 -234 -237 -270 0
-266 -231 -234 -237 -300 0
-266 -231 -234 -270 -300 0
-266 -231 -297 -237 -270 0
-266 -231 -297 -237 -300 0
-266 -231 -297 -270 -300 0
-266 -231 -237 -270 -300 0
-266 -264 -294 -234 -297 0
-266 -264 -294 -234 -237 0
-266 -264 -294 -234 -270 0
-266 -264 -294 -234 -300 0
-266 -264 -294 -297 -237 0
-266 -264 -294 -297 -270 0
-266 -264 -294 -297 -300 0
-266 -264 -294 -237 -270 0
-266 -264 -294 -237 -300 0
-266 -264 -294 -270 -300 0
-266 -264 -234 -297 -237 0
-266 -264 -234 -297 -270 0
-266 -264 -234 -297 -300 0
-266 -264 -234 -237 -270 0
-266 -264 -234 -237 -300 0
-266 -264 -234 -270 -300 0
-266 -264 -297 -237 -270 0
-266 -264 -297 -237 -300 0
-266 -264 -297 -270 -300 0
-266 -264 -237 -270 -300 0
-266 -294 -234 -297 -237 0
-266 -294 -234 -297 -270 0
-266 -294 -234 -297 -300 0
-266 -294 -234 -237 -270 0
-266 -294 -234 -237 -300 0
-266 -294 -234 -270 -300 0
-266 -294 -297 -237 -270 0
-266 -294 -297 -237 -300 0
-266 -294 -297 -270 -300 0
-266 -294 -237 -270 -300 0
-266 -234 -297 -237 -270 0
-266 -234 -297 -237 -300 0
-266 -234 -297 -270 -300 0
-266 -234 -237 -270 -300 0
-266 -297 -237 -270 -300 0
-266 231 264 294 234 297 237 0
-266 231 264 294 234 297 270 0
-266 231 264 294 234 297 300 0
-266 231 264 294 234 237 270 0
-266 231 264 294 234 237 300 0
-266 231 264 294 234 270 300 0
-266 231 264 294 297 237 270 0
-266 231 264 294 297 237 300 0
-266 231 264 294 297 270 300 0
-266 231 264 294 237 270 300 0
-266 231 264 234 297 237 270 0
-266 231 264 234 297 237 300 0
-266 231 264 234 297 270 300 0
-266 231 264 234 237 270 300 0
-266 231 264 297 237 270 300 0
-266 231 294 234 297 237 270 0
-266 231 294 234 297 237 300 0
-266 231 294 234 297 270 300 0
-266 231 294 234 237 270 300 0
-266 231 294 297 237 270 300 0
-266 231 234 297 237 270 300 0
-266 264 294 234 297 237 270 0
-266 264 294 234 297 237 300 0
-266 264 294 234 297 270 300 0
-266 264 294 234 237 270 300 0
-266 264 294 297 237 270 300 0
-266 264 234 297 237 270 300 0
-266 294 234 297 237 270 300 0
-267 -229 -262 -292 -232 -295 0
-267 -229 -262 -292 -232 -235 0
-267 -229 -262 -292 -232 -268 0
-267 -229 -262 -292 -232 -298 0
-267 -229 -262 -292 -295 -235 0
-267 -229 -262 -292 -295 -268 0
-267 -229 -262 -292 -295 -298 0
-267 -229 -262 -292 -235 -268 0
-267 -229 -262 -292 -235 -298 0
-267 -229 -262 -292 -268 -298 0
-267 -229 -262 -232 -295 -235 0
-267 -229 -262 -232 -295 -268 0
-267 -229 -262 -232 -295 -298 0
-267 -229 -262 -232 -235 -268 0
-267 -229 -262 -232 -235 -298 0
-267 -229 -262 -232 -268 -298 0
-267 -229 -262 -295 -235 -268 0
-267 -229 -262 -295 -235 -298 0
-267 -229 -262 -295 -268 -298 0
-267 -229 -262 -235 -268 -298 0
-267 -229 -292 -232 -295 -235 0
-267 -229 -292 -232 -295 -268 0
-267 -229 -292 -232 -295 -298 0
-267 -229 -292 -232 -235 -268 0
-267 -229 -292 -232 -235 -298 0
-267 -229 -292 -232 -268 -298 0
-267 -229 -292 -295 -235 -268 0
-267 -229 -292 -295 -235 -298 0
-267 -229 -292 -295 -268 -298 0
-267 -229 -292 -235 -268 -298 0
-267 -229 -232 -295 -235 -268 0
-267 -229 -232 -295 -235 -298 0
-267 -229 -232 -295 -268 -298 0
-267 -229 -232 -235 -268 -298 0
-267 -229 -295 -235 -268 -298 0
-267 -262 -292 -232 -295 -235 0
-267 -262 -292 -232 -295 -268 0
-267 -262 -292 -232 -295 -298 0
-267 -262 -292 -232 -235 -268 0
-267 -262 -292 -232 -235 -298 0
-267 -262 -292 -232 -268 -298 0
-267 -262 -292 -295 -235 -268 0
-267 -262 -292 -295 -235 -298 0
-267 -262 -292 -295 -268 -298 0
-267 -262 -292 -235 -268 -298 0
-267 -262 -232 -295 -235 -268 0
-267 -262 -232 -295 -235 -298 0
-267 -262 -232 -295 -268 -298 0
-267 -262 -232 -235 -268 -298 0
-267 -262 -295 -235 -268 -298 0
-267 -292 -232 -295 -235 -268 0
-267 -292 -232 -295 -235 -298 0
-267 -292 -232 -295 -268 -298 0
-267 -292 -232 -235 -268 -298 0
-267 -292 -295 -235 -268 -298 0
-267 -232 -295 -235 -268 -298 0
-267 229 262 292 232 295 0
-267 229 262 292 232 235 0
-267 229 262 292 232 268 0
-267 229 262 292 232 298 0
-267 229 262 292 295 235 0
-267 229 262 292 295 268 0
-267 229 262 292 295 298 0
-267 229 262 292 235 268 0
-267 229 262 292 235 298 0
-267 229 262 292 268 298 0
-267 229 262 232 295 235 0
-267 229 262 232 295 268 0
-267 229 262 232 295 298 0
-267 229 262 232 235 268 0
-267 229 262 232 235 298 0
-267 229 262 232 268 298 0
-267 229 262 295 235 268 0
-267 229 262 295 235 298 0
-267 229 262 295 268 298 0
-267 229 262 235 268 298 0
-267 229 292 232 295 235 0
-267 229 292 232 295 268 0
-267 229 292 232 295 298 0
-267 229 292 232 235 268 0
-267 229 292 232 235 298 0
-267 229 292 232 268 298 0
-267 229 292 295 235 268 0
-267 229 292 295 235 298 0
-267 229 292 295 268 298 0
-267 229 292 235 268 298 0
-267 229 232 295 235 268 0
-267 229 232 295 235 298 0
-267 229 232 295 268 298 0
-267 229 232 235 268 298 0
-267 229 295 235 268 298 0
-267 262 292 232 295 235 0
-267 262 292 232 295 268 0
-267 262 292 232 295 298 0
-267 262 292 232 235 268 0
-267 262 292 232 235 298 0
-267 262 292 232 268 298 0
-267 262 292 295 235 268 0
-267 262 292 295 235 298 0
-267 262 292 295 268 298 0
-267 262 292 235 268 298 0
-267 262 232 295 235 268 0
-267 262 232 295 235 298 0
-267 262 232 295 268 298 0
-267 262 232 235 268 298 0
-267 262 295 235 268 298 0
-267 292 232 295 235 268 0
-267 292 232 295 235 298 0
-267 292 232 295 268 298 0
-267 292 232 235 268 298 0
-267 292 295 235 268 298 0
-267 232 295 235 268 298 0
-268 -269 0
-268 -270 0
-269 -270 0
-268 -233 -266 -296 0
-268 -233 -266 -236 0
-268 -233 -266 -299 0
-268 -233 -266 -239 0
-268 -233 -266 -272 0
-268 -233 -296 -236 0
-268 -233 -296 -299 0
-268 -233 -296 -239 0
-268 -233 -296 -272 0
-268 -233 -236 -299 0
-268 -233 -236 -239 0
-268 -233 -236 -272 0
-268 -233 -299 -239 0
-268 -233 -299 -272 0
-268 -233 -239 -272 0
-268 -266 -296 -236 0
-268 -266 -296 -299 0
-268 -266 -296 -239 0
-268 -266 -296 -272 0
-268 -266 -236 -299 0
-268 -266 -236 -239 0
-268 -266 -236 -272 0
-268 -266 -299 -239 0
-268 -266 -299 -272 0
-268 -266 -239 -272 0
-268 -296 -236 -299 0
-268 -296 -236 -239 0
-268 -296 -236 -272 0
-268 -296 -299 -239 0
-268 -296 -299 -272 0
-268 -296 -239 -272 0
-268 -236 -299 -239 0
-268 -236 -299 -272 0
-268 -236 -239 -272 0
-268 -299 -239 -272 0
-268 233 266 296 236 299 239 0
-268 233 266 296 236 299 272 0
-268 233 266 296 236 239 272 0
-268 233 266 296 299 239 272 0
-268 233 266 236 299 239 272 0
-268 233 296 236 299 239 272 0
-268 266 296 236 299 239 272 0
-269 -234 -267 -297 -237 0
-269 -234 -267 -297 -300 0
-269 -234 -267 -297 -240 0
-269 -234 -267 -297 -273 0
-269 -234 -267 -237 -300 0
-269 -234 -267 -237 -240 0
-269 -234 -267 -237 -273 0
-269 -234 -267 -300 -240 0
-269 -234 -267 -300 -273 0
-269 -234 -267 -240 -273 0
-269 -234 -297 -237 -300 0
-269 -234 -297 -237 -240 0
-269 -234 -297 -237 -273 0
-269 -234 -297 -300 -240 0
-269 -234 -297 -300 -273 0
-269 -234 -297 -240 -273 0
-269 -234 -237 -300 -240 0
-269 -234 -237 -300 -273 0
-269 -234 -237 -240 -273 0
-269 -234 -300 -240 -273 0
-269 -267 -297 -237 -300 0
-269 -267 -297 -237 -240 0
-269 -267 -297 -237 -273 0
-269 -267 -297 -300 -240 0
-269 -267 -297 -300 -273 0
-269 -267 -297 -240 -273 0
-269 -267 -237 -300 -240 0
-269 -267 -237 -300 -273 0
-269 -267 -237 -240 -273 0
-269 -267 -300 -240 -273 0
-269 -297 -237 -300 -240 0
-269 -297 -237 -300 -273 0
-269 -297 -237 -240 -273 0
-269 -297 -300 -240 -273 0
-269 -237 -300 -240 -273 0
-269 234 267 297 237 300 0
-269 234 267 297 237 240 0
-269 234 267 297 237 273 0
-269 234 267 297 300 240 0
-269 234 267 297 300 273 0
-269 234 267 297 240 273 0
-269 234 267 237 300 240 0
-269 234 267 237 300 273 0
-269 234 267 237 240 273 0
-269 234 267 300 240 273 0
-269 234 297 237 300 240 0
-269 234 297 237 300 273 0
-269 234 297 237 240 273 0
-269 234 297 300 240 273 0
-269 234 237 300 240 273 0
-269 267 297 237 300 240 0
-269 267 297 237 300 273 0
-269 267 297 237 240 273 0
-269 267 297 300 240 273 0
-269 267 237 300 240 273 0
-269 297 237 300 240 273 0
-270 -232 -265 -295 -235 -298 0
-270 -232 -265 -295 -235 -238 0
-270 -232 -265 -295 -235 -271 0
-270 -232 -265 -295 -298 -238 0
-270 -232 -265 -295 -298 -271 0
-270 -232 -265 -295 -238 -271 0
-270 -232 -265 -235 -298 -238 0
-270 -232 -265 -235 -298 -271 0
-270 -232 -265 -235 -238 -271 0
-270 -232 -265 -298 -238 -271 0
-270 -232 -295 -235 -298 -238 0
-270 -232 -295 -235 -298 -271 0
-270 -232 -295 -235 -238 -271 0
-270 -232 -295 -298 -238 -271 0
-270 -232 -235 -298 -238 -271 0
-270 -265 -295 -235 -298 -238 0
-270 -265 -295 -235 -298 -271 0
-270 -265 -295 -235 -238 -271 0
-270 -265 -295 -298 -238 -271 0
-270 -265 -235 -298 -238 -271 0
-270 -295 -235 -298 -238 -271 0
-270 232 265 295 235 0
-270 232 265 295 298 0
-270 232 265 295 238 0
-270 232 265 295 271 0
-270 232 265 235 298 0
-270 232 265 235 238 0
-270 232 265 235 271 0
-270 232 265 298 238 0
-270 232 265 298 271 0
-270 232 265 238 271 0
-270 232 295 235 298 0
-270 232 295 235 238 0
-270 232 295 235 271 0
-270 232 295 298 238 0
-270 232 295 298 271 0
-270 232 295 238 271 0
-270 232 235 298 238 0
-270 232 235 298 271 0
-270 232 235 238 271 0
-270 232 298 238 271 0
-270 265 295 235 298 0
-270 265 295 235 238 0
-270 265 295 235 271 0
-270 265 295 298 238 0
-270 265 295 298 271 0
-270 265 295 238 271 0
-270 265 235 298 238 0
-270 265 235 298 271 0
-270 265 235 238 271 0
-270 265 298 238 271 0
-270 295 235 298 238 0
-270 295 235 298 271 0
-270 295 235 238 271 0
-270 295 298 238 271 0
-270 235 298 238 271 0
-271 -272 0
-271 -273 0
-272 -273 0
-271 -236 -269 -299 0
-271 -236 -269 -239 0
-271 -236 -269 -242 0
-271 -236 -299 -239 0
-271 -236 -299 -242 0
-271 -236 -239 -242 0
-271 -269 -299 -239 0
-271 -269 -299 -242 0
-271 -269 -239 -242 0
-271 -299 -239 -242 0
-271 236 269 299 239 0
-271 236 269 299 242 0
-271 236 269 239 242 0
-271 236 299 239 242 0
-271 269 299 239 242 0
-272 -237 -270 -300 -240 0
-272 -237 -270 -300 -243 0
-272 -237 -270 -240 -243 0
-272 -237 -300 -240 -243 0
-272 -270 -300 -240 -243 0
-272 237 270 300 0
-272 237 270 240 0
-272 237 270 243 0
-272 237 300 240 0
-272 237 300 243 0
-272 237 240 243 0
-272 270 300 240 0
-272 270 300 243 0
-272 270 240 243 0
-272 300 240 243 0
-273 -235 -268 -298 -238 -241 0
-273 235 268 0
-273 235 298 0
-273 235 238 0
-273 235 241 0
-273 268 298 0
-273 268 238 0
-273 268 241 0
-273 298 238 0
-273 298 241 0
-273 238 241 0
-274 -275 0
-274 -276 0
-275 -276 0
-277 -278 0
-277 -279 0
-278 -279 0
-277 -245 -275 -302 0
-277 -245 -275 -248 0
-277 -245 -275 -305 0
-277 -245 -275 -251 0
-277 -245 -275 -281 0
-277 -245 -275 -308 0
-277 -245 -302 -248 0
-277 -245 -302 -305 0
-277 -245 -302 -251 0
-277 -245 -302 -281 0
-277 -245 -302 -308 0
-277 -245 -248 -305 0
-277 -245 -248 -251 0
-277 -245 -248 -281 0
-277 -245 -248 -308 0
-277 -245 -305 -251 0
-277 -245 -305 -281 0
-277 -245 -305 -308 0
-277 -245 -251 -281 0
-277 -245 -251 -308 0
-277 -245 -281 -308 0
-277 -275 -302 -248 0
-277 -275 -302 -305 0
-277 -275 -302 -251 0
-277 -275 -302 -281 0
-277 -275 -302 -308 0
-277 -275 -248 -305 0
-277 -275 -248 -251 0
-277 -275 -248 -281 0
-277 -275 -248 -308 0
-277 -275 -305 -251 0
-277 -275 -305 -281 0
-277 -275 -305 -308 0
-277 -275 -251 -281 0
-277 -275 -251 -308 0
-277 -275 -281 -308 0
-277 -302 -248 -305 0
-277 -302 -248 -251 0
-277 -302 -248 -281 0
-277 -302 -248 -308 0
-277 -302 -305 -251 0
-277 -302 -305 -281 0
-277 -302 -305 -308 0
-277 -302 -251 -281 0
-277 -302 -251 -308 0
-277 -302 -281 -308 0
-277 -248 -305 -251 0
-277 -248 -305 -281 0
-277 -248 -305 -308 0
-277 -248 -251 -281 0
-277 -248 -251 -308 0
-277 -248 -281 -308 0
-277 -305 -251 -281 0
-277 -305 -251 -308 0
-277 -305 -281 -308 0
-277 -251 -281 -308 0
-277 245 275 302 248 305 251 281 0
-277 245 275 302 248 305 251 308 0
-277 245 275 302 248 305 281 308 0
-277 245 275 302 248 251 281 308 0
-277 245 275 302 305 251 281 308 0
-277 245 275 248 305 251 281 308 0
-277 245 302 248 305 251 281 308 0
-277 275 302 248 305 251 281 308 0
-278 -246 -276 -303 -249 0
-278 -246 -276 -303 -306 0
-278 -246 -276 -303 -252 0
-278 -246 -276 -303 -282 0
-278 -246 -276 -303 -309 0
-278 -246 -276 -249 -306 0
-278 -246 -276 -249 -252 0
-278 -246 -276 -249 -282 0
-278 -246 -276 -249 -309 0
-278 -246 -276 -306 -252 0
-278 -246 -276 -306 -282 0
-278 -246 -276 -306 -309 0
-278 -246 -276 -252 -282 0
-278 -246 -276 -252 -309 0
-278 -246 -276 -282 -309 0
-278 -246 -303 -249 -306 0
-278 -246 -303 -249 -252 0
-278 -246 -303 -249 -282 0
-278 -246 -303 -249 -309 0
-278 -246 -303 -306 -252 0
-278 -246 -303 -306 -282 0
-278 -246 -303 -306 -309 0
-278 -246 -303 -252 -282 0
-278 -246 -303 -252 -309 0
-278 -246 -303 -282 -309 0
-278 -246 -249 -306 -252 0
-278 -246 -249 -306 -282 0
-278 -246 -249 -306 -309 0
-278 -246 -249 -252 -282 0
-278 -246 -249 -252 -309 0
-278 -246 -249 -282 -309 0
-278 -246 -306 -252 -282 0
-278 -246 -306 -252 -309 0
-278 -246 -306 -282 -309 0
-278 -246 -252 -282 -309 0
-278 -276 -303 -249 -306 0
-278 -276 -303 -249 -252 0
-278 -276 -303 -249 -282 0
-278 -276 -303 -249 -309 0
-278 -276 -303 -306 -252 0
-278 -276 -303 -306 -282 0
-278 -276 -303 -306 -309 0
-278 -276 -303 -252 -282 0
-278 -276 -303 -252 -309 0
-278 -276 -303 -282 -309 0
-278 -276 -249 -306 -252 0
-278 -276 -249 -306 -282 0
-278 -276 -249 -306 -309 0
-278 -276 -249 -252 -282 0
-278 -276 -249 -252 -309 0
-278 -276 -249 -282 -309 0
-278 -276 -306 -252 -282 0
-278 -276 -306 -252 -309 0
-278 -276 -306 -282 -309 0
-278 -276 -252 -282 -309 0
-278 -303 -249 -306 -252 0
-278 -303 -249 -306 -282 0
-278 -303 -249 -306 -309 0
-278 -303 -249 -252 -282 0
-278 -303 -249 -252 -309 0
-278 -303 -249 -282 -309 0
-278 -303 -306 -252 -282 0
-278 -303 -306 -252 -309 0
-278 -303 -306 -282 -309 0
-278 -303 -252 -282 -309 0
-278 -249 -306 -252 -282 0
-278 -249 -306 -252 -309 0
-278 -249 -306 -282 -309 0
-278 -249 -252 -282 -309 0
-278 -306 -252 -282 -309 0
-278 246 276 303 249 306 252 0
-278 246 276 303 249 306 282 0
-278 246 276 303 249 306 309 0
-278 246 276 303 249 252 282 0
-278 246 276 303 249 252 309 0
-278 246 276 303 249 282 309 0
-278 246 276 303 306 252 282 0
-278 246 276 303 306 252 309 0
-278 246 276 303 306 282 309 0
-278 246 276 303 252 282 309 0
-278 246 276 249 306 252 282 0
-278 246 276 249 306 252 309 0
-278 246 276 249 306 282 309 0
-278 246 276 249 252 282 309 0
-278 246 276 306 252 282 309 0
-278 246 303 249 306 252 282 0
-278 246 303 249 306 252 309 0
-278 246 303 249 306 282 309 0
-278 246 303 249 252 282 309 0
-278 246 303 306 252 282 309 0
-278 246 249 306 252 282 309 0
-278 276 303 249 306 252 282 0
-278 276 303 249 306 252 309 0
-278 276 303 249 306 282 309 0
-278 276 303 249 252 282 309 0
-278 276 303 306 252 282 309 0
-278 276 249 306 252 282 309 0
-278 303 249 306 252 282 309 0
-279 -244 -274 -301 -247 -304 0
-279 -244 -274 -301 -247 -250 0
-279 -244 -274 -301 -247 -280 0
-279 -244 -274 -301 -247 -307 0
-279 -244 -274 -301 -304 -250 0
-279 -244 -274 -301 -304 -280 0
-279 -244 -274 -301 -304 -307 0
-279 -244 -274 -301 -250 -280 0
-279 -244 -274 -301 -250 -307 0
-279 -244 -274 -301 -280 -307 0
-279 -244 -274 -247 -304 -250 0
-279 -244 -274 -247 -304 -280 0
-279 -244 -274 -247 -304 -307 0
-279 -244 -274 -247 -250 -280 0
-279 -244 -274 -247 -250 -307 0
-279 -244 -274 -247 -280 -307 0
-279 -244 -274 -304 -250 -280 0
-279 -244 -274 -304 -250 -307 0
-279 -244 -274 -304 -280 -307 0
-279 -244 -274 -250 -280 -307 0
-279 -244 -301 -247 -304 -250 0
-279 -244 -301 -247 -304 -280 0
-279 -244 -301 -247 -304 -307 0
-279 -244 -301 -247 -250 -280 0
-279 -244 -301 -247 -250 -307 0
-279 -244 -301 -247 -280 -307 0
-279 -244 -301 -304 -250 -280 0
-279 -244 -301 -304 -250 -307 0
-279 -244 -301 -304 -280 -307 0
-279 -244 -301 -250 -280 -307 0
-279 -244 -247 -304 -250 -280 0
-279 -244 -247 -304 -250 -307 0
-279 -244 -247 -304 -280 -307 0
-279 -244 -247 -250 -280 -307 0
-279 -244 -304 -250 -280 -307 0
-279 -274 -301 -247 -304 -250 0
-279 -274 -301 -247 -304 -280 0
-279 -274 -301 -247 -304 -307 0
-279 -274 -301 -247 -250 -280 0
-279 -274 -301 -247 -250 -307 0
-279 -274 -301 -247 -280 -307 0
-279 -274 -301 -304 -250 -280 0
-279 -274 -301 -304 -250 -307 0
-279 -274 -301 -304 -280 -307 0
-279 -274 -301 -250 -280 -307 0
-279 -274 -247 -304 -250 -280 0
-279 -274 -247 -304 -250 -307 0
-279 -274 -247 -304 -280 -307 0
-279 -274 -247 -250 -280 -307 0
-279 -274 -304 -250 -280 -307 0
-279 -301 -247 -304 -250 -280 0
-279 -301 -247 -304 -250 -307 0
-279 -301 -247 -304 -280 -307 0
-279 -301 -247 -250 -280 -307 0
-279 -301 -304 -250 -280 -307 0
-279 -247 -304 -250 -280 -307 0
-279 244 274 301 247 304 0
-279 244 274 301 247 250 0
-279 244 274 301 247 280 0
-279 244 274 301 247 307 0
-279 244 274 301 304 250 0
-279 244 274 301 304 280 0
-279 244 274 301 304 307 0
-279 244 274 301 250 280 0
-279 244 274 301 250 307 0
-279 244 274 301 280 307 0
-279 244 274 247 304 250 0
-279 244 274 247 304 280 0
-279 244 274 247 304 307 0
-279 244 274 247 250 280 0
-279 244 274 247 250 307 0
-279 244 274 247 280 307 0
-279 244 274 304 250 280 0
-279 244 274 304 250 307 0
-279 244 274 304 280 307 0
-279 244 274 250 280 307 0
-279 244 301 247 304 250 0
-279 244 301 247 304 280 0
-279 244 301 247 304 307 0
-279 244 301 247 250 280 0
-279 244 301 247 250 307 0
-279 244 301 247 280 307 0
-279 244 301 304 250 280 0
-279 244 301 304 250 307 0
-279 244 301 304 280 307 0
-279 244 301 250 280 307 0
-279 244 247 304 250 280 0
-279 244 247 304 250 307 0
-279 244 247 304 280 307 0
-279 244 247 250 280 307 0
-279 244 304 250 280 307 0
-279 274 301 247 304 250 0
-279 274 301 247 304 280 0
-279 274 301 247 304 307 0
-279 274 301 247 250 280 0
-279 274 301 247 250 307 0
-279 274 301 247 280 307 0
-279 274 301 304 250 280 0
-279 274 301 304 250 307 0
-279 274 301 304 280 307 0
-279 274 301 250 280 307 0
-279 274 247 304 250 280 0
-279 274 247 304 250 307 0
-279 274 247 304 280 307 0
-279 274 247 250 280 307 0
-279 274 304 250 280 307 0
-279 301 247 304 250 280 0
-279 301 247 304 250 307 0
-279 301 247 304 280 307 0
-279 301 247 250 280 307 0
-279 301 304 250 280 307 0
-279 247 304 250 280 307 0
-280 -281 0
-280 -282 0
-281 -282 0
-280 -248 -278 -305 0
-280 -248 -278 -251 0
-280 -248 -278 -308 0
-280 -248 -278 -254 0
-280 -248 -278 -284 0
-280 -248 -278 -311 0
-280 -248 -305 -251 0
-280 -248 -305 -308 0
-280 -248 -305 -254 0
-280 -248 -305 -284 0
-280 -248 -305 -311 0
-280 -248 -251 -308 0
-280 -248 -251 -254 0
-280 -248 -251 -284 0
-280 -248 -251 -311 0
-280 -248 -308 -254 0
-280 -248 -308 -284 0
-280 -248 -308 -311 0
-280 -248 -254 -284 0
-280 -248 -254 -311 0
-280 -248 -284 -311 0
-280 -278 -305 -251 0
-280 -278 -305 -308 0
-280 -278 -305 -254 0
-280 -278 -305 -284 0
-280 -278 -305 -311 0
-280 -278 -251 -308 0
-280 -278 -251 -254 0
-280 -278 -251 -284 0
-280 -278 -251 -311 0
-280 -278 -308 -254 0
-280 -278 -308 -284 0
-280 -278 -308 -311 0
-280 -278 -254 -284 0
-280 -278 -254 -311 0
-280 -278 -284 -311 0
-280 -305 -251 -308 0
-280 -305 -251 -254 0
-280 -305 -251 -284 0
-280 -305 -251 -311 0
-280 -305 -308 -254 0
-280 -305 -308 -284 0
-280 -305 -308 -311 0
-280 -305 -254 -284 0
-280 -305 -254 -311 0
-280 -305 -284 -311 0
-280 -251 -308 -254 0
-280 -251 -308 -284 0
-280 -251 -308 -311 0
-280 -251 -254 -284 0
-280 -251 -254 -311 0
-280 -251 -284 -311 0
-280 -308 -254 -284 0
-280 -308 -254 -311 0
-280 -308 -284 -311 0
-280 -254 -284 -311 0
-280 248 278 305 251 308 254 284 0
-280 248 278 305 251 308 254 311 0
-280 248 278 305 251 308 284 311 0
-280 248 278 305 251 254 284 311 0
-280 248 278 305 308 254 284 311 0
-280 248 278 251 308 254 284 311 0
-280 248 305 251 308 254 284 311 0
-280 278 305 251 308 254 284 311 0
-281 -249 -279 -306 -252 0
-281 -249 -279 -306 -309 0
-281 -249 -279 -306 -255 0
-281 -249 -279 -306 -285 0
-281 -249 -279 -306 -312 0
-281 -249 -279 -252 -309 0
-281 -249 -279 -252 -255 0
-281 -249 -279 -252 -285 0
-281 -249 -279 -252 -312 0
-281 -249 -279 -309 -255 0
-281 -249 -279 -309 -285 0
-281 -249 -279 -309 -312 0
-281 -249 -279 -255 -285 0
-281 -249 -279 -255 -312 0
-281 -249 -279 -285 -312 0
-281 -249 -306 -252 -309 0
-281 -249 -306 -252 -255 0
-281 -249 -306 -252 -285 0
-281 -249 -306 -252 -312 0
-281 -249 -306 -309 -255 0
-281 -249 -306 -309 -285 0
-281 -249 -306 -309 -312 0
-281 -249 -306 -255 -285 0
-281 -249 -306 -255 -312 0
-281 -249 -306 -285 -312 0
-281 -249 -252 -309 -255 0
-281 -249 -252 -309 -285 0
-281 -249 -252 -309 -312 0
-281 -249 -252 -255 -285 0
-281 -249 -252 -255 -312 0
-281 -249 -252 -285 -312 0
-281 -249 -309 -255 -285 0
-281 -249 -309 -255 -312 0
-281 -249 -309 -285 -312 0
-281 -249 -255 -285 -312 0
-281 -279 -306 -252 -309 0
-281 -279 -306 -252 -255 0
-281 -279 -306 -252 -285 0
-281 -279 -306 -252 -312 0
-281 -279 -306 -309 -255 0
-281 -279 -306 -309 -285 0
-281 -279 -306 -309 -312 0
-281 -279 -306 -255 -285 0
-281 -279 -306 -255 -312 0
-281 -279 -306 -285 -312 0
-281 -279 -252 -309 -255 0
-281 -279 -252 -309 -285 0
-281 -279 -252 -309 -312 0
-281 -279 -252 -255 -285 0
-281 -279 -252 -255 -312 0
-281 -279 -252 -285 -312 0
-281 -279 -309 -255 -285 0
-281 -279 -309 -255 -312 0
-281 -279 -309 -285 -312 0
-281 -279 -255 -285 -312 0
-281 -306 -252 -309 -255 0
-281 -306 -252 -309 -285 0
-281 -306 -252 -309 -312 0
-281 -306 -252 -255 -285 0
-281 -306 -252 -255 -312 0
-281 -306 -252 -285 -312 0
-281 -306 -309 -255 -285 0
-281 -306 -309 -255 -312 0
-281 -306 -309 -285 -312 0
-281 -306 -255 -285 -312 0
-281 -252 -309 -255 -285 0
-281 -252 -309 -255 -312 0
-281 -252 -309 -285 -312 0
-281 -252 -255 -285 -312 0
-281 -309 -255 -285 -312 0
-281 249 279 306 252 309 255 0
-281 249 279 306 252 309 285 0
-281 249 279 306 252 309 312 0
-281 249 279 306 252 255 285 0
-281 249 279 306 252 255 312 0
-281 249 279 306 252 285 312 0
-281 249 279 306 309 255 285 0
-281 249 279 306 309 255 312 0
-281 249 279 306 309 285 312 0
-281 249 279 306 255 285 312 0
-281 249 279 252 309 255 285 0
-281 249 279 252 309 255 312 0
-281 249 279 252 309 285 312 0
-281 249 279 252 255 285 312 0
-281 249 279 309 255 285 312 0
-281 249 306 252 309 255 285 0
-281 249 306 252 309 255 312 0
-281 249 306 252 309 285 312 0
-281 249 306 252 255 285 312 0
-281 249 306 309 255 285 312 0
-281 249 252 309 255 285 312 0
-281 279 306 252 309 255 285 0
-281 279 306 252 309 255 312 0
-281 279 306 252 309 285 312 0
-281 279 306 252 255 285 312 0
-281 279 306 309 255 285 312 0
-281 279 252 309 255 285 312 0
-281 306 252 309 255 285 312 0
-282 -247 -277 -304 -250 -307 0
-282 -247 -277 -304 -250 -253 0
-282 -247 -277 -304 -250 -283 0
-282 -247 -277 -304 -250 -310 0
-282 -247 -277 -304 -307 -253 0
-282 -247 -277 -304 -307 -283 0
-282 -247 -277 -304 -307 -310 0
-282 -247 -277 -304 -253 -283 0
-282 -247 -277 -304 -253 -310 0
-282 -247 -277 -304 -283 -310 0
-282 -247 -277 -250 -307 -253 0
-282 -247 -277 -250 -307 -283 0
-282 -247 -277 -250 -307 -310 0
-282 -247 -277 -250 -253 -283 0
-282 -247 -277 -250 -253 -310 0
-282 -247 -277 -250 -283 -310 0
-282 -247 -277 -307 -253 -283 0
-282 -247 -277 -307 -253 -310 0
-282 -247 -277 -307 -283 -310 0
-282 -247 -277 -253 -283 -310 0
-282 -247 -304 -250 -307 -253 0
-282 -247 -304 -250 -307 -283 0
-282 -247 -304 -250 -307 -310 0
-282 -247 -304 -250 -253 -283 0
-282 -247 -304 -250 -253 -310 0
-282 -247 -304 -250 -283 -310 0
-282 -247 -304 -307 -253 -283 0
-282 -247 -304 -307 -253 -310 0
-282 -247 -304 -307 -283 -310 0
-282 -247 -304 -253 -283 -310 0
-282 -247 -250 -307 -253 -283 0
-282 -247 -250 -307 -253 -310 0
-282 -247 -250 -307 -283 -310 0
-282 -247 -250 -253 -283 -310 0
-282 -247 -307 -253 -283 -310 0
-282 -277 -304 -250 -307 -253 0
-282 -277 -304 -250 -307 -283 0
-282 -277 -304 -250 -307 -310 0
-282 -277 -304 -250 -253 -283 0
-282 -277 -304 -250 -253 -310 0
-282 -277 -304 -250 -283 -310 0
-282 -277 -304 -307 -253 -283 0
-282 -277 -304 -307 -253 -310 0
-282 -277 -304 -307 -283 -310 0
-282 -277 -304 -253 -283 -310 0
-282 -277 -250 -307 -253 -283 0
-282 -277 -250 -307 -253 -310 0
-282 -277 -250 -307 -283 -310 0
-282 -277 -250 -253 -283 -310 0
-282 -277 -307 -253 -283 -310 0
-282 -304 -250 -307 -253 -283 0
-282 -304 -250 -307 -253 -310 0
-282 -304 -250 -307 -283 -310 0
-282 -304 -250 -253 -283 -310 0
-282 -304 -307 -253 -283 -310 0
-282 -250 -307 -253 -283 -310 0
-282 247 277 304 250 307 0
-282 247 277 304 250 253 0
-282 247 277 304 250 283 0
-282 247 277 304 250 310 0
-282 247 277 304 307 253 0
-282 247 277 304 307 283 0
-282 247 277 304 307 310 0
-282 247 277 304 253 283 0
-282 247 277 304 253 310 0
-282 247 277 304 283 310 0
-282 247 277 250 307 253 0
-282 247 277 250 307 283 0
-282 247 277 250 307 310 0
-282 247 277 250 253 283 0
-282 247 277 250 253 310 0
-282 247 277 250 283 310 0
-282 247 277 307 253 283 0
-282 247 277 307 253 310 0
-282 247 277 307 283 310 0
-282 247 277 253 283 310 0
-282 247 304 250 307 253 0
-282 247 304 250 307 283 0
-282 247 304 250 307 310 0
-282 247 304 250 253 283 0
-282 247 304 250 253 310 0
-282 247 304 250 283 310 0
-282 247 304 307 253 283 0
-282 247 304 307 253 310 0
-282 247 304 307 283 310 0
-282 247 304 253 283 310 0
-282 247 250 307 253 283 0
-282 247 250 307 253 310 0
-282 247 250 307 283 310 0
-282 247 250 253 283 310 0
-282 247 307 253 283 310 0
-282 277 304 250 307 253 0
-282 277 304 250 307 283 0
-282 277 304 250 307 310 0
-282 277 304 250 253 283 0
-282 277 304 250 253 310 0
-282 277 304 250 283 310 0
-282 277 304 307 253 283 0
-282 277 304 307 253 310 0
-282 277 304 307 283 310 0
-282 277 304 253 283 310 0
-282 277 250 307 253 283 0
-282 277 250 307 253 310 0
-282 277 250 307 283 310 0
-282 277 250 253 283 310 0
-282 277 307 253 283 310 0
-282 304 250 307 253 283 0
-282 304 250 307 253 310 0
-282 304 250 307 283 310 0
-282 304 250 253 283 310 0
-282 304 307 253 283 310 0
-282 250 307 253 283 310 0
-283 -284 0
-283 -285 0
-284 -285 0
-283 -251 -281 -308 0
-283 -251 -281 -254 0
-283 -251 -281 -311 0
-283 -251 -281 -257 0
-283 -251 -281 -287 0
-283 -251 -281 -314 0
-283 -251 -308 -254 0
-283 -251 -308 -311 0
-283 -251 -308 -257 0
-283 -251 -308 -287 0
-283 -251 -308 -314 0
-283 -251 -254 -311 0
-283 -251 -254 -257 0
-283 -251 -254 -287 0
-283 -251 -254 -314 0
-283 -251 -311 -257 0
-283 -251 -311 -287 0
-283 -251 -311 -314 0
-283 -251 -257 -287 0
-283 -251 -257 -314 0
-283 -251 -287 -314 0
-283 -281 -308 -254 0
-283 -281 -308 -311 0
-283 -281 -308 -257 0
-283 -281 -308 -287 0
-283 -281 -308 -314 0
-283 -281 -254 -311 0
-283 -281 -254 -257 0
-283 -281 -254 -287 0
-283 -281 -254 -314 0
-283 -281 -311 -257 0
-283 -281 -311 -287 0
-283 -281 -311 -314 0
-283 -281 -257 -287 0
-283 -281 -257 -314 0
-283 -281 -287 -314 0
-283 -308 -254 -311 0
-283 -308 -254 -257 0
-283 -308 -254 -287 0
-283 -308 -254 -314 0
-283 -308 -311 -257 0
-283 -308 -311 -287 0
-283 -308 -311 -314 0
-283 -308 -257 -287 0
-283 -308 -257 -314 0
-283 -308 -287 -314 0
-283 -254 -311 -257 0
-283 -254 -311 -287 0
-283 -254 -311 -314 0
-283 -254 -257 -287 0
-283 -254 -257 -314 0
-283 -254 -287 -314 0
-283 -311 -257 -287 0
-283 -311 -257 -314 0
-283 -311 -287 -314 0
-283 -257 -287 -314 0
-283 251 281 308 254 311 257 287 0
-283 251 281 308 254 311 257 314 0
-283 251 281 308 254 311 287 314 0
-283 251 281 308 254 257 287 314 0
-283 251 281 308 311 257 287 314 0
-283 251 281 254 311 257 287 314 0
-283 251 308 254 311 257 287 314 0
-283 281 308 254 311 257 287 314 0
-284 -252 -282 -309 -255 0
-284 -252 -282 -309 -312 0
-284 -252 -282 -309 -258 0
-284 -252 -282 -309 -288 0
-284 -252 -282 -309 -315 0
-284 -252 -282 -255 -312 0
-284 -252 -282 -255 -258 0
-284 -252 -282 -255 -288 0
-284 -252 -282 -255 -315 0
-284 -252 -282 -312 -258 0
-284 -252 -282 -312 -288 0
-284 -252 -282 -312 -315 0
-284 -252 -282 -258 -288 0
-284 -252 -282 -258 -315 0
-284 -252 -282 -288 -315 0
-284 -252 -309 -255 -312 0
-284 -252 -309 -255 -258 0
-284 -252 -309 -255 -288 0
-284 -252 -309 -255 -315 0
-284 -252 -309 -312 -258 0
-284 -252 -309 -312 -288 0
-284 -252 -309 -312 -315 0
-284 -252 -309 -258 -288 0
-284 -252 -309 -258 -315 0
-284 -252 -309 -288 -315 0
-284 -252 -255 -312 -258 0
-284 -252 -255 -312 -288 0
-284 -252 -255 -312 -315 0
-284 -252 -255 -258 -288 0
-284 -252 -255 -258 -315 0
-284 -252 -255 -288 -315 0
-284 -252 -312 -258 -288 0
-284 -252 -312 -258 -315 0
-284 -252 -312 -288 -315 0
-284 -252 -258 -288 -315 0
-284 -282 -309 -255 -312 0
-284 -282 -309 -255 -258 0
-284 -282 -309 -255 -288 0
-284 -282 -309 -255 -315 0
-284 -282 -309 -312 -258 0
-284 -282 -309 -312 -288 0
-284 -282 -309 -312 -315 0
-284 -282 -309 -258 -288 0
-284 -282 -309 -258 -315 0
-284 -282 -309 -288 -315 0
-284 -282 -255 -312 -258 0
-284 -282 -255 -312 -288 0
-284 -282 -255 -312 -315 0
-284 -282 -255 -258 -288 0
-284 -282 -255 -258 -315 0
-284 -282 -255 -288 -315 0
-284 -282 -312 -258 -288 0
-284 -282 -312 -258 -315 0
-284 -282 -312 -288 -315 0
-284 -282 -258 -288 -315 0
-284 -309 -255 -312 -258 0
-284 -309 -255 -312 -288 0
-284 -309 -255 -312 -315 0
-284 -309 -255 -258 -288 0
-284 -309 -255 -258 -315 0
-284 -309 -255 -288 -315 0
-284 -309 -312 -258 -288 0
-284 -309 -312 -258 -315 0
-284 -309 -312 -288 -315 0
-284 -309 -258 -288 -315 0
-284 -255 -312 -258 -288 0
-284 -255 -312 -258 -315 0
-284 -255 -312 -288 -315 0
-284 -255 -258 -288 -315 0
-284 -312 -258 -288 -315 0
-284 252 282 309 255 312 258 0
-284 252 282 309 255 312 288 0
-284 252 282 309 255 312 315 0
-284 252 282 309 255 258 288 0
-284 252 282 309 255 258 315 0
-284 252 282 309 255 288 315 0
-284 252 282 309 312 258 288 0
-284 252 282 309 312 258 315 0
-284 252 282 309 312 288 315 0
-284 252 282 309 258 288 315 0
-284 252 282 255 312 258 288 0
-284 252 282 255 312 258 315 0
-284 252 282 255 312 288 315 0
-284 252 282 255 258 288 315 0
-284 252 282 312 258 288 315 0
-284 252 309 255 312 258 288 0
-284 252 309 255 312 258 315 0
-284 252 309 255 312 288 315 0
-284 252 309 255 258 288 315 0
-284 252 309 312 258 288 315 0
-284 252 255 312 258 288 315 0
-284 282 309 255 312 258 288 0
-284 282 309 255 312 258 315 0
-284 282 309 255 312 288 315 0
-284 282 309 255 258 288 315 0
-284 282 309 312 258 288 315 0
-284 282 255 312 258 288 315 0
-284 309 255 312 258 288 315 0
-285 -250 -280 -307 -253 -310 0
-285 -250 -280 -307 -253 -256 0
-285 -250 -280 -307 -253 -286 0
-285 -250 -280 -307 -253 -313 0
-285 -250 -280 -307 -310 -256 0
-285 -250 -280 -307 -310 -286 0
-285 -250 -280 -307 -310 -313 0
-285 -250 -280 -307 -256 -286 0
-285 -250 -280 -307 -256 -313 0
-285 -250 -280 -307 -286 -313 0
-285 -250 -280 -253 -310 -256 0
-285 -250 -280 -253 -310 -286 0
-285 -250 -280 -253 -310 -313 0
-285 -250 -280 -253 -256 -286 0
-285 -250 -280 -253 -256 -313 0
-285 -250 -280 -253 -286 -313 0
-285 -250 -280 -310 -256 -286 0
-285 -250 -280 -310 -256 -313 0
-285 -250 -280 -310 -286 -313 0
-285 -250 -280 -256 -286 -313 0
-285 -250 -307 -253 -310 -256 0
-285 -250 -307 -253 -310 -286 0
-285 -250 -307 -253 -310 -313 0
-285 -250 -307 -253 -256 -286 0
-285 -250 -307 -253 -256 -313 0
-285 -250 -307 -253 -286 -313 0
-285 -250 -307 -310 -256 -286 0
-285 -250 -307 -310 -256 -313 0
-285 -250 -307 -310 -286 -313 0
-285 -250 -307 -256 -286 -313 0
-285 -250 -253 -310 -256 -286 0
-285 -250 -253 -310 -256 -313 0
-285 -250 -253 -310 -286 -313 0
-285 -250 -253 -256 -286 -313 0
-285 -250 -310 -256 -286 -313 0
-285 -280 -307 -253 -310 -256 0
-285 -280 -307 -253 -310 -286 0
-285 -280 -307 -253 -310 -313 0
-285 -280 -307 -253 -256 -286 0
-285 -280 -307 -253 -256 -313 0
-285 -280 -307 -253 -286 -313 0
-285 -280 -307 -310 -256 -286 0
-285 -280 -307 -310 -256 -313 0
-285 -280 -307 -310 -286 -313 0
-285 -280 -307 -256 -286 -313 0
-285 -280 -253 -310 -256 -286 0
-285 -280 -253 -310 -256 -313 0
-285 -280 -253 -310 -286 -313 0
-285 -280 -253 -256 -286 -313 0
-285 -280 -310 -256 -286 -313 0
-285 -307 -253 -310 -256 -286 0
-285 -307 -253 -310 -256 -313 0
-285 -307 -253 -310 -286 -313 0
-285 -307 -253 -256 -286 -313 0
-285 -307 -310 -256 -286 -313 0
-285 -253 -310 -256 -286 -313 0
-285 250 280 307 253 310 0
-285 250 280 307 253 256 0
-285 250 280 307 253 286 0
-285 250 280 307 253 313 0
-285 250 280 307 310 256 0
-285 250 280 307 310 286 0
-285 250 280 307 310 313 0
-285 250 280 307 256 286 0
-285 250 280 307 256 313 0
-285 250 280 307 286 313 0
-285 250 280 253 310 256 0
-285 250 280 253 310 286 0
-285 250 280 253 310 313 0
-285 250 280 253 256 286 0
-285 250 280 253 256 313 0
-285 250 280 253 286 313 0
-285 250 280 310 256 286 0
-285 250 280 310 256 313 0
-285 250 280 310 286 313 0
-285 250 280 256 286 313 0
-285 250 307 253 310 256 0
-285 250 307 253 310 286 0
-285 250 307 253 310 313 0
-285 250 307 253 256 286 0
-285 250 307 253 256 313 0
-285 250 307 253 286 313 0
-285 250 307 310 256 286 0
-285 250 307 310 256 313 0
-285 250 307 310 286 313 0
-285 250 307 256 286 313 0
-285 250 253 310 256 286 0
-285 250 253 310 256 313 0
-285 250 253 310 286 313 0
-285 250 253 256 286 313 0
-285 250 310 256 286 313 0
-285 280 307 253 310 256 0
-285 280 307 253 310 286 0
-285 280 307 253 310 313 0
-285 280 307 253 256 286 0
-285 280 307 253 256 313 0
-285 280 307 253 286 313 0
-285 280 307 310 256 286 0
-285 280 307 310 256 313 0
-285 280 307 310 286 313 0
-285 280 307 256 286 313 0
-285 280 253 310 256 286 0
-285 280 253 310 256 313 0
-285 280 253 310 286 313 0
-285 280 253 256 286 313 0
-285 280 310 256 286 313 0
-285 307 253 310 256 286 0
-285 307 253 310 256 313 0
-285 307 253 310 286 313 0
-285 307 253 256 286 313 0
-285 307 310 256 286 313 0
-285 253 310 256 286 313 0
-286 -287 0
-286 -288 0
-287 -288 0
-286 -254 -284 -311 0
-286 -254 -284 -257 0
-286 -254 -284 -314 0
-286 -254 -284 -260 0
-286 -254 -284 -290 0
-286 -254 -284 -317 0
-286 -254 -311 -257 0
-286 -254 -311 -314 0
-286 -254 -311 -260 0
-286 -254 -311 -290 0
-286 -254 -311 -317 0
-286 -254 -257 -314 0
-286 -254 -257 -260 0
-286 -254 -257 -290 0
-286 -254 -257 -317 0
-286 -254 -314 -260 0
-286 -254 -314 -290 0
-286 -254 -314 -317 0
-286 -254 -260 -290 0
-286 -254 -260 -317 0
-286 -254 -290 -317 0
-286 -284 -311 -257 0
-286 -284 -311 -314 0
-286 -284 -311 -260 0
-286 -284 -311 -290 0
-286 -284 -311 -317 0
-286 -284 -257 -314 0
-286 -284 -257 -260 0
-286 -284 -257 -290 0
-286 -284 -257 -317 0
-286 -284 -314 -260 0
-286 -284 -314 -290 0
-286 -284 -314 -317 0
-286 -284 -260 -290 0
-286 -284 -260 -317 0
-286 -284 -290 -317 0
-286 -311 -257 -314 0
-286 -311 -257 -260 0
-286 -311 -257 -290 0
-286 -311 -257 -317 0
-286 -311 -314 -260 0
-286 -311 -314 -290 0
-286 -311 -314 -317 0
-286 -311 -260 -290 0
-286 -311 -260 -317 0
-286 -311 -290 -317 0
-286 -257 -314 -260 0
-286 -257 -314 -290 0
-286 -257 -314 -317 0
-286 -257 -260 -290 0
-286 -257 -260 -317 0
-286 -257 -290 -317 0
-286 -314 -260 -290 0
-286 -314 -260 -317 0
-286 -314 -290 -317 0
-286 -260 -290 -317 0
-286 254 284 311 257 314 260 290 0
-286 254 284 311 257 314 260 317 0
-286 254 284 311 257 314 290 317 0
-286 254 284 311 257 260 290 317 0
-286 254 284 311 314 260 290 317 0
-286 254 284 257 314 260 290 317 0
-286 254 311 257 314 260 290 317 0
-286 284 311 257 314 260 290 317 0
-287 -255 -285 -312 -258 0
-287 -255 -285 -312 -315 0
-287 -255 -285 -312 -261 0
-287 -255 -285 -312 -291 0
-287 -255 -285 -312 -318 0
-287 -255 -285 -258 -315 0
-287 -255 -285 -258 -261 0
-287 -255 -285 -258 -291 0
-287 -255 -285 -258 -318 0
-287 -255 -285 -315 -261 0
-287 -255 -285 -315 -291 0
-287 -255 -285 -315 -318 0
-287 -255 -285 -261 -291 0
-287 -255 -285 -261 -318 0
-287 -255 -285 -291 -318 0
-287 -255 -312 -258 -315 0
-287 -255 -312 -258 -261 0
-287 -255 -312 -258 -291 0
-287 -255 -312 -258 -318 0
-287 -255 -312 -315 -261 0
-287 -255 -312 -315 -291 0
-287 -255 -312 -315 -318 0
-287 -255 -312 -261 -291 0
-287 -255 -312 -261 -318 0
-287 -255 -312 -291 -318 0
-287 -255 -258 -315 -261 0
-287 -255 -258 -315 -291 0
-287 -255 -258 -315 -318 0
-287 -255 -258 -261 -291 0
-287 -255 -258 -261 -318 0
-287 -255 -258 -291 -318 0
-287 -255 -315 -261 -291 0
-287 -255 -315 -261 -318 0
-287 -255 -315 -291 -318 0
-287 -255 -261 -291 -318 0
-287 -285 -312 -258 -315 0
-287 -285 -312 -258 -261 0
-287 -285 -312 -258 -291 0
-287 -285 -312 -258 -318 0
-287 -285 -312 -315 -261 0
-287 -285 -312 -315 -291 0
-287 -285 -312 -315 -318 0
-287 -285 -312 -261 -291 0
-287 -285 -312 -261 -318 0
-287 -285 -312 -291 -318 0
-287 -285 -258 -315 -261 0
-287 -285 -258 -315 -291 0
-287 -285 -258 -315 -318 0
-287 -285 -258 -261 -291 0
-287 -285 -258 -261 -318 0
-287 -285 -258 -291 -318 0
-287 -285 -315 -261 -291 0
-287 -285 -315 -261 -318 0
-287 -285 -315 -291 -318 0
-287 -285 -261 -291 -318 0
-287 -312 -258 -315 -261 0
-287 -312 -258 -315 -291 0
-287 -312 -258 -315 -318 0
-287 -312 -258 -261 -291 0
-287 -312 -258 -261 -318 0
-287 -312 -258 -291 -318 0
-287 -312 -315 -261 -291 0
-287 -312 -315 -261 -318 0
-287 -312 -315 -291 -318 0
-287 -312 -261 -291 -318 0
-287 -258 -315 -261 -291 0
-287 -258 -315 -261 -318 0
-287 -258 -315 -291 -318 0
-287 -258 -261 -291 -318 0
-287 -315 -261 -291 -318 0
-287 255 285 312 258 315 261 0
-287 255 285 312 258 315 291 0
-287 255 285 312 258 315 318 0
-287 255 285 312 258 261 291 0
-287 255 285 312 258 261 318 0
-287 255 285 312 258 291 318 0
-287 255 285 312 315 261 291 0
-287 255 285 312 315 261 318 0
-287 255 285 312 315 291 318 0
-287 255 285 312 261 291 318 0
-287 255 285 258 315 261 291 0
-287 255 285 258 315 261 318 0
-287 255 285 258 315 291 318 0
-287 255 285 258 261 291 318 0
-287 255 285 315 261 291 318 0
-287 255 312 258 315 261 291 0
-287 255 312 258 315 261 318 0
-287 255 312 258 315 291 318 0
-287 255 312 258 261 291 318 0
-287 255 312 315 261 291 318 0
-287 255 258 315 261 291 318 0
-287 285 312 258 315 261 291 0
-287 285 312 258 315 261 318 0
-287 285 312 258 315 291 318 0
-287 285 312 258 261 291 318 0
-287 285 312 315 261 291 318 0
-287 285 258 315 261 291 318 0
-287 312 258 315 261 291 318 0
-288 -253 -283 -310 -256 -313 0
-288 -253 -283 -310 -256 -259 0
-288 -253 -283 -310 -256 -289 0
-288 -253 -283 -310 -256 -316 0
-288 -253 -283 -310 -313 -259 0
-288 -253 -283 -310 -313 -289 0
-288 -253 -283 -310 -313 -316 0
-288 -253 -283 -310 -259 -289 0
-288 -253 -283 -310 -259 -316 0
-288 -253 -283 -310 -289 -316 0
-288 -253 -283 -256 -313 -259 0
-288 -253 -283 -256 -313 -289 0
-288 -253 -283 -256 -313 -316 0
-288 -253 -283 -256 -259 -289 0
-288 -253 -283 -256 -259 -316 0
-288 -253 -283 -256 -289 -316 0
-288 -253 -283 -313 -259 -289 0
-288 -253 -283 -313 -259 -316 0
-288 -253 -283 -313 -289 -316 0
-288 -253 -283 -259 -289 -316 0
-288 -253 -310 -256 -313 -259 0
-288 -253 -310 -256 -313 -289 0
-288 -253 -310 -256 -313 -316 0
-288 -253 -310 -256 -259 -289 0
-288 -253 -310 -256 -259 -316 0
-288 -253 -310 -256 -289 -316 0
-288 -253 -310 -313 -259 -289 0
-288 -253 -310 -313 -259 -316 0
-288 -253 -310 -313 -289 -316 0
-288 -253 -310 -259 -289 -316 0
-288 -253 -256 -313 -259 -289 0
-288 -253 -256 -313 -259 -316 0
-288 -253 -256 -313 -289 -316 0
-288 -253 -256 -259 -289 -316 0
-288 -253 -313 -259 -289 -316 0
-288 -283 -310 -256 -313 -259 0
-288 -283 -310 -256 -313 -289 0
-288 -283 -310 -256 -313 -316 0
-288 -283 -310 -256 -259 -289 0
-288 -283 -310 -256 -259 -316 0
-288 -283 -310 -256 -289 -316 0
-288 -283 -310 -313 -259 -289 0
-288 -283 -310 -313 -259 -316 0
-288 -283 -310 -313 -289 -316 0
-288 -283 -310 -259 -289 -316 0
-288 -283 -256 -313 -259 -289 0
-288 -283 -256 -313 -259 -316 0
-288 -283 -256 -313 -289 -316 0
-288 -283 -256 -259 -289 -316 0
-288 -283 -313 -259 -289 -316 0
-288 -310 -256 -313 -259 -289 0
-288 -310 -256 -313 -259 -316 0
-288 -310 -256 -313 -289 -316 0
-288 -310 -256 -259 -289 -316 0
-288 -310 -313 -259 -289 -316 0
-288 -256 -313 -259 -289 -316 0
-288 253 283 310 256 313 0
-288 253 283 310 256 259 0
-288 253 283 310 256 289 0
-288 253 283 310 256 316 0
-288 253 283 310 313 259 0
-288 253 283 310 313 289 0
-288 253 283 310 313 316 0
-288 253 283 310 259 289 0
-288 253 283 310 259 316 0
-288 253 283 310 289 316 0
-288 253 283 256 313 259 0
-288 253 283 256 313 289 0
-288 253 283 256 313 316 0
-288 253 283 256 259 289 0
-288 253 283 256 259 316 0
-288 253 283 256 289 316 0
-288 253 283 313 259 289 0
-288 253 283 313 259 316 0
-288 253 283 313 289 316 0
-288 253 283 259 289 316 0
-288 253 310 256 313 259 0
-288 253 310 256 313 289 0
-288 253 310 256 313 316 0
-288 253 310 256 259 289 0
-288 253 310 256 259 316 0
-288 253 310 256 289 316 0
-288 253 310 313 259 289 0
-288 253 310 313 259 316 0
-288 253 310 313 289 316 0
-288 253 310 259 289 316 0
-288 253 256 313 259 289 0
-288 253 256 313 259 316 0
-288 253 256 313 289 316 0
-288 253 256 259 289 316 0
-288 253 313 259 289 316 0
-288 283 310 256 313 259 0
-288 283 310 256 313 289 0
-288 283 310 256 313 316 0
-288 283 310 256 259 289 0
-288 283 310 256 259 316 0
-288 283 310 256 289 316 0
-288 283 310 313 259 289 0
-288 283 310 313 259 316 0
-288 283 310 313 289 316 0
-288 283 310 259 289 316 0
-288 283 256 313 259 289 0
-288 283 256 313 259 316 0
-288 283 256 313 289 316 0
-288 283 256 259 289 316 0
-288 283 313 259 289 316 0
-288 310 256 313 259 289 0
-288 310 256 313 259 316 0
-288 310 256 313 289 316 0
-288 310 256 259 289 316 0
-288 310 313 259 289 316 0
-288 256 313 259 289 316 0
-289 -290 0
-289 -291 0
-290 -291 0
-289 -257 -287 -314 0
-289 -257 -287 -260 0
-289 -257 -287 -317 0
-289 -257 -287 -263 0
-289 -257 -287 -293 0
-289 -257 -287 -320 0
-289 -257 -314 -260 0
-289 -257 -314 -317 0
-289 -257 -314 -263 0
-289 -257 -314 -293 0
-289 -257 -314 -320 0
-289 -257 -260 -317 0
-289 -257 -260 -263 0
-289 -257 -260 -293 0
-289 -257 -260 -320 0
-289 -257 -317 -263 0
-289 -257 -317 -293 0
-289 -257 -317 -320 0
-289 -257 -263 -293 0
-289 -257 -263 -320 0
-289 -257 -293 -320 0
-289 -287 -314 -260 0
-289 -287 -314 -317 0
-289 -287 -314 -263 0
-289 -287 -314 -293 0
-289 -287 -314 -320 0
-289 -287 -260 -317 0
-289 -287 -260 -263 0
-289 -287 -260 -293 0
-289 -287 -260 -320 0
-289 -287 -317 -263 0
-289 -287 -317 -293 0
-289 -287 -317 -320 0
-289 -287 -263 -293 0
-289 -287 -263 -320 0
-289 -287 -293 -320 0
-289 -314 -260 -317 0
-289 -314 -260 -263 0
-289 -314 -260 -293 0
-289 -314 -260 -320 0
-289 -314 -317 -263 0
-289 -314 -317 -293 0
-289 -314 -317 -320 0
-289 -314 -263 -293 0
-289 -314 -263 -320 0
-289 -314 -293 -320 0
-289 -260 -317 -263 0
-289 -260 -317 -293 0
-289 -260 -317 -320 0
-289 -260 -263 -293 0
-289 -260 -263 -320 0
-289 -260 -293 -320 0
-289 -317 -263 -293 0
-289 -317 -263 -320 0
-289 -317 -293 -320 0
-289 -263 -293 -320 0
-289 257 287 314 260 317 263 293 0
-289 257 287 314 260 317 263 320 0
-289 257 287 314 260 317 293 320 0
-289 257 287 314 260 263 293 320 0
-289 257 287 314 317 263 293 320 0
-289 257 287 260 317 263 293 320 0
-289 257 314 260 317 263 293 320 0
-289 287 314 260 317 263 293 320 0
-290 -258 -288 -315 -261 0
-290 -258 -288 -315 -318 0
-290 -258 -288 -315 -264 0
-290 -258 -288 -315 -294 0
-290 -258 -288 -315 -321 0
-290 -258 -288 -261 -318 0
-290 -258 -288 -261 -264 0
-290 -258 -288 -261 -294 0
-290 -258 -288 -261 -321 0
-290 -258 -288 -318 -264 0
-290 -258 -288 -318 -294 0
-290 -258 -288 -318 -321 0
-290 -258 -288 -264 -294 0
-290 -258 -288 -264 -321 0
-290 -258 -288 -294 -321 0
-290 -258 -315 -261 -318 0
-290 -258 -315 -261 -264 0
-290 -258 -315 -261 -294 0
-290 -258 -315 -261 -321 0
-290 -258 -315 -318 -264 0
-290 -258 -315 -318 -294 0
-290 -258 -315 -318 -321 0
-290 -258 -315 -264 -294 0
-290 -258 -315 -264 -321 0
-290 -258 -315 -294 -321 0
-290 -258 -261 -318 -264 0
-290 -258 -261 -318 -294 0
-290 -258 -261 -318 -321 0
-290 -258 -261 -264 -294 0
-290 -258 -261 -264 -321 0
-290 -258 -261 -294 -321 0
-290 -258 -318 -264 -294 0
-290 -258 -318 -264 -321 0
-290 -258 -318 -294 -321 0
-290 -258 -264 -294 -321 0
-290 -288 -315 -261 -318 0
-290 -288 -315 -261 -264 0
-290 -288 -315 -261 -294 0
-290 -288 -315 -261 -321 0
-290 -288 -315 -318 -264 0
-290 -288 -315 -318 -294 0
-290 -288 -315 -318 -321 0
-290 -288 -315 -264 -294 0
-290 -288 -315 -264 -321 0
-290 -288 -315 -294 -321 0
-290 -288 -261 -318 -264 0
-290 -288 -261 -318 -294 0
-290 -288 -261 -318 -321 0
-290 -288 -261 -264 -294 0
-290 -288 -261 -264 -321 0
-290 -288 -261 -294 -321 0
-290 -288 -318 -264 -294 0
-290 -288 -318 -264 -321 0
-290 -288 -318 -294 -321 0
-290 -288 -264 -294 -321 0
-290 -315 -261 -318 -264 0
-290 -315 -261 -318 -294 0
-290 -315 -261 -318 -321 0
-290 -315 -261 -264 -294 0
-290 -315 -261 -264 -321 0
-290 -315 -261 -294 -321 0
-290 -315 -318 -264 -294 0
-290 -315 -318 -264 -321 0
-290 -315 -318 -294 -321 0
-290 -315 -264 -294 -321 0
-290 -261 -318 -264 -294 0
-290 -261 -318 -264 -321 0
-290 -261 -318 -294 -321 0
-290 -261 -264 -294 -321 0
-290 -318 -264 -294 -321 0
-290 258 288 315 261 318 264 0
-290 258 288 315 261 318 294 0
-290 258 288 315 261 318 321 0
-290 258 288 315 261 264 294 0
-290 258 288 315 261 264 321 0
-290 258 288 315 261 294 321 0
-290 258 288 315 318 264 294 0
-290 258 288 315 318 264 321 0
-290 258 288 315 318 294 321 0
-290 258 288 315 264 294 321 0
-290 258 288 261 318 264 294 0
-290 258 288 261 318 264 321 0
-290 258 288 261 318 294 321 0
-290 258 288 261 264 294 321 0
-290 258 288 318 264 294 321 0
-290 258 315 261 318 264 294 0
-290 258 315 261 318 264 321 0
-290 258 315 261 318 294 321 0
-290 258 315 261 264 294 321 0
-290 258 315 318 264 294 321 0
-290 258 261 318 264 294 321 0
-290 288 315 261 318 264 294 0
-290 288 315 261 318 264 321 0
-290 288 315 261 318 294 321 0
-290 288 315 261 264 294 321 0
-290 288 315 318 264 294 321 0
-290 288 261 318 264 294 321 0
-290 315 261 318 264 294 321 0
-291 -256 -286 -313 -259 -316 0
-291 -256 -286 -313 -259 -262 0
-291 -256 -286 -313 -259 -292 0
-291 -256 -286 -313 -259 -319 0
-291 -256 -286 -313 -316 -262 0
-291 -256 -286 -313 -316 -292 0
-291 -256 -286 -313 -316 -319 0
-291 -256 -286 -313 -262 -292 0
-291 -256 -286 -313 -262 -319 0
-291 -256 -286 -313 -292 -319 0
-291 -256 -286 -259 -316 -262 0
-291 -256 -286 -259 -316 -292 0
-291 -256 -286 -259 -316 -319 0
-291 -256 -286 -259 -262 -292 0
-291 -256 -286 -259 -262 -319 0
-291 -256 -286 -259 -292 -319 0
-291 -256 -286 -316 -262 -292 0
-291 -256 -286 -316 -262 -319 0
-291 -256 -286 -316 -292 -319 0
-291 -256 -286 -262 -292 -319 0
-291 -256 -313 -259 -316 -262 0
-291 -256 -313 -259 -316 -292 0
-291 -256 -313 -259 -316 -319 0
-291 -256 -313 -259 -262 -292 0
-291 -256 -313 -259 -262 -319 0
-291 -256 -313 -259 -292 -319 0
-291 -256 -313 -316 -262 -292 0
-291 -256 -313 -316 -262 -319 0
-291 -256 -313 -316 -292 -319 0
-291 -256 -313 -262 -292 -319 0
-291 -256 -259 -316 -262 -292 0
-291 -256 -259 -316 -262 -319 0
-291 -256 -259 -316 -292 -319 0
-291 -256 -259 -262 -292 -319 0
-291 -256 -316 -262 -292 -319 0
-291 -286 -313 -259 -316 -262 0
-291 -286 -313 -259 -316 -292 0
-291 -286 -313 -259 -316 -319 0
-291 -286 -313 -259 -262 -292 0
-291 -286 -313 -259 -262 -319 0
-291 -286 -313 -259 -292 -319 0
-291 -286 -313 -316 -262 -292 0
-291 -286 -313 -316 -262 -319 0
-291 -286 -313 -316 -292 -319 0
-291 -286 -313 -262 -292 -319 0
-291 -286 -259 -316 -262 -292 0
-291 -286 -259 -316 -262 -319 0
-291 -286 -259 -316 -292 -319 0
-291 -286 -259 -262 -292 -319 0
-291 -286 -316 -262 -292 -319 0
-291 -313 -259 -316 -262 -292 0
-291 -313 -259 -316 -262 -319 0
-291 -313 -259 -316 -292 -319 0
-291 -313 -259 -262 -292 -319 0
-291 -313 -316 -262 -292 -319 0
-291 -259 -316 -262 -292 -319 0
-291 256 286 313 259 316 0
-291 256 286 313 259 262 0
-291 256 286 313 259 292 0
-291 256 286 313 259 319 0
-291 256 286 313 316 262 0
-291 256 286 313 316 292 0
-291 256 286 313 316 319 0
-291 256 286 313 262 292 0
-291 256 286 313 262 319 0
-291 256 286 313 292 319 0
-291 256 286 259 316 262 0
-291 256 286 259 316 292 0
-291 256 286 259 316 319 0
-291 256 286 259 262 292 0
-291 256 286 259 262 319 0
-291 256 286 259 292 319 0
-291 256 286 316 262 292 0
-291 256 286 316 262 319 0
-291 256 286 316 292 319 0
-291 256 286 262 292 319 0
-291 256 313 259 316 262 0
-291 256 313 259 316 292 0
-291 256 313 259 316 319 0
-291 256 313 259 262 292 0
-291 256 313 259 262 319 0
-291 256 313 259 292 319 0
-291 256 313 316 262 292 0
-291 256 313 316 262 319 0
-291 256 313 316 292 319 0
-291 256 313 262 292 319 0
-291 256 259 316 262 292 0
-291 256 259 316 262 319 0
-291 256 259 316 292 319 0
-291 256 259 262 292 319 0
-291 256 316 262 292 319 0
-291 286 313 259 316 262 0
-291 286 313 259 316 292 0
-291 286 313 259 316 319 0
-291 286 313 259 262 292 0
-291 286 313 259 262 319 0
-291 286 313 259 292 319 0
-291 286 313 316 262 292 0
-291 286 313 316 262 319 0
-291 286 313 316 292 319 0
-291 286 313 262 292 319 0
-291 286 259 316 262 292 0
-291 286 259 316 262 319 0
-291 286 259 316 292 319 0
-291 286 259 262 292 319 0
-291 286 316 262 292 319 0
-291 313 259 316 262 292 0
-291 313 259 316 262 319 0
-291 313 259 316 292 319 0
-291 313 259 262 292 319 0
-291 313 316 262 292 319 0
-291 259 316 262 292 319 0
-292 -293 0
-292 -294 0
-293 -294 0
-292 -260 -290 -317 0
-292 -260 -290 -263 0
-292 -260 -290 -320 0
-292 -260 -290 -266 0
-292 -260 -290 -296 0
-292 -260 -290 -323 0
-292 -260 -317 -263 0
-292 -260 -317 -320 0
-292 -260 -317 -266 0
-292 -260 -317 -296 0
-292 -260 -317 -323 0
-292 -260 -263 -320 0
-292 -260 -263 -266 0
-292 -260 -263 -296 0
-292 -260 -263 -323 0
-292 -260 -320 -266 0
-292 -260 -320 -296 0
-292 -260 -320 -323 0
-292 -260 -266 -296 0
-292 -260 -266 -323 0
-292 -260 -296 -323 0
-292 -290 -317 -263 0
-292 -290 -317 -320 0
-292 -290 -317 -266 0
-292 -290 -317 -296 0
-292 -290 -317 -323 0
-292 -290 -263 -320 0
-292 -290 -263 -266 0
-292 -290 -263 -296 0
-292 -290 -263 -323 0
-292 -290 -320 -266 0
-292 -290 -320 -296 0
-292 -290 -320 -323 0
-292 -290 -266 -296 0
-292 -290 -266 -323 0
-292 -290 -296 -323 0
-292 -317 -263 -320 0
-292 -317 -263 -266 0
-292 -317 -263 -296 0
-292 -317 -263 -323 0
-292 -317 -320 -266 0
-292 -317 -320 -296 0
-292 -317 -320 -323 0
-292 -317 -266 -296 0
-292 -317 -266 -323 0
-292 -317 -296 -323 0
-292 -263 -320 -266 0
-292 -263 -320 -296 0
-292 -263 -320 -323 0
-292 -263 -266 -296 0
-292 -263 -266 -323 0
-292 -263 -296 -323 0
-292 -320 -266 -296 0
-292 -320 -266 -323 0
-292 -320 -296 -323 0
-292 -266 -296 -323 0
-292 260 290 317 263 320 266 296 0
-292 260 290 317 263 320 266 323 0
-292 260 290 317 263 320 296 323 0
-292 260 290 317 263 266 296 323 0
-292 260 290 317 320 266 296 323 0
-292 260 290 263 320 266 296 323 0
-292 260 317 263 320 266 296 323 0
-292 290 317 263 320 266 296 323 0
-293 -261 -291 -318 -264 0
-293 -261 -291 -318 -321 0
-293 -261 -291 -318 -267 0
-293 -261 -291 -318 -297 0
-293 -261 -291 -318 -324 0
-293 -261 -291 -264 -321 0
-293 -261 -291 -264 -267 0
-293 -261 -291 -264 -297 0
-293 -261 -291 -264 -324 0
-293 -261 -291 -321 -267 0
-293 -261 -291 -321 -297 0
-293 -261 -291 -321 -324 0
-293 -261 -291 -267 -297 0
-293 -261 -291 -267 -324 0
-293 -261 -291 -297 -324 0
-293 -261 -318 -264 -321 0
-293 -261 -318 -264 -267 0
-293 -261 -318 -264 -297 0
-293 -261 -318 -264 -324 0
-293 -261 -318 -321 -267 0
-293 -261 -318 -321 -297 0
-293 -261 -318 -321 -324 0
-293 -261 -318 -267 -297 0
-293 -261 -318 -267 -324 0
-293 -261 -318 -297 -324 0
-293 -261 -264 -321 -267 0
-293 -261 -264 -321 -297 0
-293 -261 -264 -321 -324 0
-293 -261 -264 -267 -297 0
-293 -261 -264 -267 -324 0
-293 -261 -264 -297 -324 0
-293 -261 -321 -267 -297 0
-293 -261 -321 -267 -324 0
-293 -261 -321 -297 -324 0
-293 -261 -267 -297 -324 0
-293 -291 -318 -264 -321 0
-293 -291 -318 -264 -267 0
-293 -291 -318 -264 -297 0
-293 -291 -318 -264 -324 0
-293 -291 -318 -321 -267 0
-293 -291 -318 -321 -297 0
-293 -291 -318 -321 -324 0
-293 -291 -318 -267 -297 0
-293 -291 -318 -267 -324 0
-293 -291 -318 -297 -324 0
-293 -291 -264 -321 -267 0
-293 -291 -264 -321 -297 0
-293 -291 -264 -321 -324 0
-293 -291 -264 -267 -297 0
-293 -291 -264 -267 -324 0
-293 -291 -264 -297 -324 0
-293 -291 -321 -267 -297 0
-293 -291 -321 -267 -324 0
-293 -291 -321 -297 -324 0
-293 -291 -267 -297 -324 0
-293 -318 -264 -321 -267 0
-293 -318 -264 -321 -297 0
-293 -318 -264 -321 -324 0
-293 -318 -264 -267 -297 0
-293 -318 -264 -267 -324 0
-293 -318 -264 -297 -324 0
-293 -318 -321 -267 -297 0
-293 -318 -321 -267 -324 0
-293 -318 -321 -297 -324 0
-293 -318 -267 -297 -324 0
-293 -264 -321 -267 -297 0
-293 -264 -321 -267 -324 0
-293 -264 -321 -297 -324 0
-293 -264 -267 -297 -324 0
-293 -321 -267 -297 -324 0
-293 261 291 318 264 321 267 0
-293 261 291 318 264 321 297 0
-293 261 291 318 264 321 324 0
-293 261 291 318 264 267 297 0
-293 261 291 318 264 267 324 0
-293 261 291 318 264 297 324 0
-293 261 291 318 321 267 297 0
-293 261 291 318 321 267 324 0
-293 261 291 318 321 297 324 0
-293 261 291 318 267 297 324 0
-293 261 291 264 321 267 297 0
-293 261 291 264 321 267 324 0
-293 261 291 264 321 297 324 0
-293 261 291 264 267 297 324 0
-293 261 291 321 267 297 324 0
-293 261 318 264 321 267 297 0
-293 261 318 264 321 267 324 0
-293 261 318 264 321 297 324 0
-293 261 318 264 267 297 324 0
-293 261 318 321 267 297 324 0
-293 261 264 321 267 297 324 0
-293 291 318 264 321 267 297 0
-293 291 318 264 321 267 324 0
-293 291 318 264 321 297 324 0
-293 291 318 264 267 297 324 0
-293 291 318 321 267 297 324 0
-293 291 264 321 267 297 324 0
-293 318 264 321 267 297 324 0
-294 -259 -289 -316 -262 -319 0
-294 -259 -289 -316 -262 -265 0
-294 -259 -289 -316 -262 -295 0
-294 -259 -289 -316 -262 -322 0
-294 -259 -289 -316 -319 -265 0
-294 -259 -289 -316 -319 -295 0
-294 -259 -289 -316 -319 -322 0
-294 -259 -289 -316 -265 -295 0
-294 -259 -289 -316 -265 -322 0
-294 -259 -289 -316 -295 -322 0
-294 -259 -289 -262 -319 -265 0
-294 -259 -289 -262 -319 -295 0
-294 -259 -289 -262 -319 -322 0
-294 -259 -289 -262 -265 -295 0
-294 -259 -289 -262 -265 -322 0
-294 -259 -289 -262 -295 -322 0
-294 -259 -289 -319 -265 -295 0
-294 -259 -289 -319 -265 -322 0
-294 -259 -289 -319 -295 -322 0
-294 -259 -289 -265 -295 -322 0
-294 -259 -316 -262 -319 -265 0
-294 -259 -316 -262 -319 -295 0
-294 -259 -316 -262 -319 -322 0
-294 -259 -316 -262 -265 -295 0
-294 -259 -316 -262 -265 -322 0
-294 -259 -316 -262 -295 -322 0
-294 -259 -316 -319 -265 -295 0
-294 -259 -316 -319 -265 -322 0
-294 -259 -316 -319 -295 -322 0
-294 -259 -316 -265 -295 -322 0
-294 -259 -262 -319 -265 -295 0
-294 -259 -262 -319 -265 -322 0
-294 -259 -262 -319 -295 -322 0
-294 -259 -262 -265 -295 -322 0
-294 -259 -319 -265 -295 -322 0
-294 -289 -316 -262 -319 -265 0
-294 -289 -316 -262 -319 -295 0
-294 -289 -316 -262 -319 -322 0
-294 -289 -316 -262 -265 -295 0
-294 -289 -316 -262 -265 -322 0
-294 -289 -316 -262 -295 -322 0
-294 -289 -316 -319 -265 -295 0
-294 -289 -316 -319 -265 -322 0
-294 -289 -316 -319 -295 -322 0
-294 -289 -316 -265 -295 -322 0
-294 -289 -262 -319 -265 -295 0
-294 -289 -262 -319 -265 -322 0
-294 -289 -262 -319 -295 -322 0
-294 -289 -262 -265 -295 -322 0
-294 -289 -319 -265 -295 -322 0
-294 -316 -262 -319 -265 -295 0
-294 -316 -262 -319 -265 -322 0
-294 -316 -262 -319 -295 -322 0
-294 -316 -262 -265 -295 -322 0
-294 -316 -319 -265 -295 -322 0
-294 -262 -319 -265 -295 -322 0
-294 259 289 316 262 319 0
-294 259 289 316 262 265 0
-294 259 289 316 262 295 0
-294 259 289 316 262 322 0
-294 259 289 316 319 265 0
-294 259 289 316 319 295 0
-294 259 289 316 319 322 0
-294 259 289 316 265 295 0
-294 259 289 316 265 322 0
-294 259 289 316 295 322 0
-294 259 289 262 319 265 0
-294 259 289 262 319 295 0
-294 259 289 262 319 322 0
-294 259 289 262 265 295 0
-294 259 289 262 265 322 0
-294 259 289 262 295 322 0
-294 259 289 319 265 295 0
-294 259 289 319 265 322 0
-294 259 289 319 295 322 0
-294 259 289 265 295 322 0
-294 259 316 262 319 265 0
-294 259 316 262 319 295 0
-294 259 316 262 319 322 0
-294 259 316 262 265 295 0
-294 259 316 262 265 322 0
-294 259 316 262 295 322 0
-294 259 316 319 265 295 0
-294 259 316 319 265 322 0
-294 259 316 319 295 322 0
-294 259 316 265 295 322 0
-294 259 262 319 265 295 0
-294 259 262 319 265 322 0
-294 259 262 319 295 322 0
-294 259 262 265 295 322 0
-294 259 319 265 295 322 0
-294 289 316 262 319 265 0
-294 289 316 262 319 295 0
-294 289 316 262 319 322 0
-294 289 316 262 265 295 0
-294 289 316 262 265 322 0
-294 289 316 262 295 322 0
-294 289 316 319 265 295 0
-294 289 316 319 265 322 0
-294 289 316 319 295 322 0
-294 289 316 265 295 322 0
-294 289 262 319 265 295 0
-294 289 262 319 265 322 0
-294 289 262 319 295 322 0
-294 289 262 265 295 322 0
-294 289 319 265 295 322 0
-294 316 262 319 265 295 0
-294 316 262 319 265 322 0
-294 316 262 319 295 322 0
-294 316 262 265 295 322 0
-294 316 319 265 295 322 0
-294 262 319 265 295 322 0
-295 -296 0
-295 -297 0
-296 -297 0
-295 -263 -293 -320 0
-295 -263 -293 -266 0
-295 -263 -293 -323 0
-295 -263 -293 -269 0
-295 -263 -293 -299 0
-295 -263 -293 -326 0
-295 -263 -320 -266 0
-295 -263 -320 -323 0
-295 -263 -320 -269 0
-295 -263 -320 -299 0
-295 -263 -320 -326 0
-295 -263 -266 -323 0
-295 -263 -266 -269 0
-295 -263 -266 -299 0
-295 -263 -266 -326 0
-295 -263 -323 -269 0
-295 -263 -323 -299 0
-295 -263 -323 -326 0
-295 -263 -269 -299 0
-295 -263 -269 -326 0
-295 -263 -299 -326 0
-295 -293 -320 -266 0
-295 -293 -320 -323 0
-295 -293 -320 -269 0
-295 -293 -320 -299 0
-295 -293 -320 -326 0
-295 -293 -266 -323 0
-295 -293 -266 -269 0
-295 -293 -266 -299 0
-295 -293 -266 -326 0
-295 -293 -323 -269 0
-295 -293 -323 -299 0
-295 -293 -323 -326 0
-295 -293 -269 -299 0
-295 -293 -269 -326 0
-295 -293 -299 -326 0
-295 -320 -266 -323 0
-295 -320 -266 -269 0
-295 -320 -266 -299 0
-295 -320 -266 -326 0
-295 -320 -323 -269 0
-295 -320 -323 -299 0
-295 -320 -323 -326 0
-295 -320 -269 -299 0
-295 -320 -269 -326 0
-295 -320 -299 -326 0
-295 -266 -323 -269 0
-295 -266 -323 -299 0
-295 -266 -323 -326 0
-295 -266 -269 -299 0
-295 -266 -269 -326 0
-295 -266 -299 -326 0
-295 -323 -269 -299 0
-295 -323 -269 -326 0
-295 -323 -299 -326 0
-295 -269 -299 -326 0
-295 263 293 320 266 323 269 299 0
-295 263 293 320 266 323 269 326 0
-295 263 293 320 266 323 299 326 0
-295 263 293 320 266 269 299 326 0
-295 263 293 320 323 269 299 326 0
-295 263 293 266 323 269 299 326 0
-295 263 320 266 323 269 299 326 0
-295 293 320 266 323 269 299 326 0
-296 -264 -294 -321 -267 0
-296 -264 -294 -321 -324 0
-296 -264 -294 -321 -270 0
-296 -264 -294 -321 -300 0
-296 -264 -294 -321 -327 0
-296 -264 -294 -267 -324 0
-296 -264 -294 -267 -270 0
-296 -264 -294 -267 -300 0
-296 -264 -294 -267 -327 0
-296 -264 -294 -324 -270 0
-296 -264 -294 -324 -300 0
-296 -264 -294 -324 -327 0
-296 -264 -294 -270 -300 0
-296 -264 -294 -270 -327 0
-296 -264 -294 -300 -327 0
-296 -264 -321 -267 -324 0
-296 -264 -321 -267 -270 0
-296 -264 -321 -267 -300 0
-296 -264 -321 -267 -327 0
-296 -264 -321 -324 -270 0
-296 -264 -321 -324 -300 0
-296 -264 -321 -324 -327 0
-296 -264 -321 -270 -300 0
-296 -264 -321 -270 -327 0
-296 -264 -321 -300 -327 0
-296 -264 -267 -324 -270 0
-296 -264 -267 -324 -300 0
-296 -264 -267 -324 -327 0
-296 -264 -267 -270 -300 0
-296 -264 -267 -270 -327 0
-296 -264 -267 -300 -327 0
-296 -264 -324 -270 -300 0
-296 -264 -324 -270 -327 0
-296 -264 -324 -300 -327 0
-296 -264 -270 -300 -327 0
-296 -294 -321 -267 -324 0
-296 -294 -321 -267 -270 0
-296 -294 -321 -267 -300 0
-296 -294 -321 -267 -327 0
-296 -294 -321 -324 -270 0
-296 -294 -321 -324 -300 0
-296 -294 -321 -324 -327 0
-296 -294 -321 -270 -300 0
-296 -294 -321 -270 -327 0
-296 -294 -321 -300 -327 0
-296 -294 -267 -324 -270 0
-296 -294 -267 -324 -300 0
-296 -294 -267 -324 -327 0
-296 -294 -267 -270 -300 0
-296 -294 -267 -270 -327 0
-296 -294 -267 -300 -327 0
-296 -294 -324 -270 -300 0
-296 -294 -324 -270 -327 0
-296 -294 -324 -300 -327 0
-296 -294 -270 -300 -327 0
-296 -321 -267 -324 -270 0
-296 -321 -267 -324 -300 0
-296 -321 -267 -324 -327 0
-296 -321 -267 -270 -300 0
-296 -321 -267 -270 -327 0
-296 -321 -267 -300 -327 0
-296 -321 -324 -270 -300 0
-296 -321 -324 -270 -327 0
-296 -321 -324 -300 -327 0
-296 -321 -270 -300 -327 0
-296 -267 -324 -270 -300 0
-296 -267 -324 -270 -327 0
-296 -267 -324 -300 -327 0
-296 -267 -270 -300 -327 0
-296 -324 -270 -300 -327 0
-296 264 294 321 267 324 270 0
-296 264 294 321 267 324 300 0
-296 264 294 321 267 324 327 0
-296 264 294 321 267 270 300 0
-296 264 294 321 267 270 327 0
-296 264 294 321 267 300 327 0
-296 264 294 321 324 270 300 0
-296 264 294 321 324 270 327 0
-296 264 294 321 324 300 327 0
-296 264 294 321 270 300 327 0
-296 264 294 267 324 270 300 0
-296 264 294 267 324 270 327 0
-296 264 294 267 324 300 327 0
-296 264 294 267 270 300 327 0
-296 264 294 324 270 300 327 0
-296 264 321 267 324 270 300 0
-296 264 321 267 324 270 327 0
-296 264 321 267 324 300 327 0
-296 264 321 267 270 300 327 0
-296 264 321 324 270 300 327 0
-296 264 267 324 270 300 327 0
-296 294 321 267 324 270 300 0
-296 294 321 267 324 270 327 0
-296 294 321 267 324 300 327 0
-296 294 321 267 270 300 327 0
-296 294 321 324 270 300 327 0
-296 294 267 324 270 300 327 0
-296 321 267 324 270 300 327 0
-297 -262 -292 -319 -265 -322 0
-297 -262 -292 -319 -265 -268 0
-297 -262 -292 -319 -265 -298 0
-297 -262 -292 -319 -265 -325 0
-297 -262 -292 -319 -322 -268 0
-297 -262 -292 -319 -322 -298 0
-297 -262 -292 -319 -322 -325 0
-297 -262 -292 -319 -268 -298 0
-297 -262 -292 -319 -268 -325 0
-297 -262 -292 -319 -298 -325 0
-297 -262 -292 -265 -322 -268 0
-297 -262 -292 -265 -322 -298 0
-297 -262 -292 -265 -322 -325 0
-297 -262 -292 -265 -268 -298 0
-297 -262 -292 -265 -268 -325 0
-297 -262 -292 -265 -298 -325 0
-297 -262 -292 -322 -268 -298 0
-297 -262 -292 -322 -268 -325 0
-297 -262 -292 -322 -298 -325 0
-297 -262 -292 -268 -298 -325 0
-297 -262 -319 -265 -322 -268 0
-297 -262 -319 -265 -322 -298 0
-297 -262 -319 -265 -322 -325 0
-297 -262 -319 -265 -268 -298 0
-297 -262 -319 -265 -268 -325 0
-297 -262 -319 -265 -298 -325 0
-297 -262 -319 -322 -268 -298 0
-297 -262 -319 -322 -268 -325 0
-297 -262 -319 -322 -298 -325 0
-297 -262 -319 -268 -298 -325 0
-297 -262 -265 -322 -268 -298 0
-297 -262 -265 -322 -268 -325 0
-297 -262 -265 -322 -298 -325 0
-297 -262 -265 -268 -298 -325 0
-297 -262 -322 -268 -298 -325 0
-297 -292 -319 -265 -322 -268 0
-297 -292 -319 -265 -322 -298 0
-297 -292 -319 -265 -322 -325 0
-297 -292 -319 -265 -268 -298 0
-297 -292 -319 -265 -268 -325 0
-297 -292 -319 -265 -298 -325 0
-297 -292 -319 -322 -268 -298 0
-297 -292 -319 -322 -268 -325 0
-297 -292 -319 -322 -298 -325 0
-297 -292 -319 -268 -298 -325 0
-297 -292 -265 -322 -268 -298 0
-297 -292 -265 -322 -268 -325 0
-297 -292 -265 -322 -298 -325 0
-297 -292 -265 -268 -298 -325 0
-297 -292 -322 -268 -298 -325 0
-297 -319 -265 -322 -268 -298 0
-297 -319 -265 -322 -268 -325 0
-297 -319 -265 -322 -298 -325 0
-297 -319 -265 -268 -298 -325 0
-297 -319 -322 -268 -298 -325 0
-297 -265 -322 -268 -298 -325 0
-297 262 292 319 265 322 0
-297 262 292 319 265 268 0
-297 262 292 319 265 298 0
-297 262 292 319 265 325 0
-297 262 292 319 322 268 0
-297 262 292 319 322 298 0
-297 262 292 319 322 325 0
-297 262 292 319 268 298 0
-297 262 292 319 268 325 0
-297 262 292 319 298 325 0
-297 262 292 265 322 268 0
-297 262 292 265 322 298 0
-297 262 292 265 322 325 0
-297 262 292 265 268 298 0
-297 262 292 265 268 325 0
-297 262 292 265 298 325 0
-297 262 292 322 268 298 0
-297 262 292 322 268 325 0
-297 262 292 322 298 325 0
-297 262 292 268 298 325 0
-297 262 319 265 322 268 0
-297 262 319 265 322 298 0
-297 262 319 265 322 325 0
-297 262 319 265 268 298 0
-297 262 319 265 268 325 0
-297 262 319 265 298 325 0
-297 262 319 322 268 298 0
-297 262 319 322 268 325 0
-297 262 319 322 298 325 0
-297 262 319 268 298 325 0
-297 262 265 322 268 298 0
-297 262 265 322 268 325 0
-297 262 265 322 298 325 0
-297 262 265 268 298 325 0
-297 262 322 268 298 325 0
-297 292 319 265 322 268 0
-297 292 319 265 322 298 0
-297 292 319 265 322 325 0
-297 292 319 265 268 298 0
-297 292 319 265 268 325 0
-297 292 319 265 298 325 0
-297 292 319 322 268 298 0
-297 292 319 322 268 325 0
-297 292 319 322 298 325 0
-297 292 319 268 298 325 0
-297 292 265 322 268 298 0
-297 292 265 322 268 325 0
-297 292 265 322 298 325 0
-297 292 265 268 298 325 0
-297 292 322 268 298 325 0
-297 319 265 322 268 298 0
-297 319 265 322 268 325 0
-297 319 265 322 298 325 0
-297 319 265 268 298 325 0
-297 319 322 268 298 325 0
-297 265 322 268 298 325 0
-298 -299 0
-298 -300 0
-299 -300 0
-298 -266 -296 -323 0
-298 -266 -296 -269 0
-298 -266 -296 -326 0
-298 -266 -296 -272 0
-298 -266 -323 -269 0
-298 -266 -323 -326 0
-298 -266 -323 -272 0
-298 -266 -269 -326 0
-298 -266 -269 -272 0
-298 -266 -326 -272 0
-298 -296 -323 -269 0
-298 -296 -323 -326 0
-298 -296 -323 -272 0
-298 -296 -269 -326 0
-298 -296 -269 -272 0
-298 -296 -326 -272 0
-298 -323 -269 -326 0
-298 -323 -269 -272 0
-298 -323 -326 -272 0
-298 -269 -326 -272 0
-298 266 296 323 269 326 0
-298 266 296 323 269 272 0
-298 266 296 323 326 272 0
-298 266 296 269 326 272 0
-298 266 323 269 326 272 0
-298 296 323 269 326 272 0
-299 -267 -297 -324 -270 0
-299 -267 -297 -324 -327 0
-299 -267 -297 -324 -273 0
-299 -267 -297 -270 -327 0
-299 -267 -297 -270 -273 0
-299 -267 -297 -327 -273 0
-299 -267 -324 -270 -327 0
-299 -267 -324 -270 -273 0
-299 -267 -324 -327 -273 0
-299 -267 -270 -327 -273 0
-299 -297 -324 -270 -327 0
-299 -297 -324 -270 -273 0
-299 -297 -324 -327 -273 0
-299 -297 -270 -327 -273 0
-299 -324 -270 -327 -273 0
-299 267 297 324 270 0
-299 267 297 324 327 0
-299 267 297 324 273 0
-299 267 297 270 327 0
-299 267 297 270 273 0
-299 267 297 327 273 0
-299 267 324 270 327 0
-299 267 324 270 273 0
-299 267 324 327 273 0
-299 267 270 327 273 0
-299 297 324 270 327 0
-299 297 324 270 273 0
-299 297 324 327 273 0
-299 297 270 327 273 0
-299 324 270 327 273 0
-300 -265 -295 -322 -268 -325 0
-300 -265 -295 -322 -268 -271 0
-300 -265 -295 -322 -325 -271 0
-300 -265 -295 -268 -325 -271 0
-300 -265 -322 -268 -325 -271 0
-300 -295 -322 -268 -325 -271 0
-300 265 295 322 0
-300 265 295 268 0
-300 265 295 325 0
-300 265 295 271 0
-300 265 322 268 0
-300 265 322 325 0
-300 265 322 271 0
-300 265 268 325 0
-300 265 268 271 0
-300 265 325 271 0
-300 295 322 268 0
-300 295 322 325 0
-300 295 322 271 0
-300 295 268 325 0
-300 295 268 271 0
-300 295 325 271 0
-300 322 268 325 0
-300 322 268 271 0
-300 322 325 271 0
-300 268 325 271 0
-301 -302 0
-301 -303 0
-302 -303 0
-304 -305 0
-304 -306 0
-305 -306 0
-304 -275 -302 -329 0
-304 -275 -302 -278 0
-304 -275 -302 -332 0
-304 -275 -302 -281 0
-304 -275 -302 -308 0
-304 -275 -302 -335 0
-304 -275 -329 -278 0
-304 -275 -329 -332 0
-304 -275 -329 -281 0
-304 -275 -329 -308 0
-304 -275 -329 -335 0
-304 -275 -278 -332 0
-304 -275 -278 -281 0
-304 -275 -278 -308 0
-304 -275 -278 -335 0
-304 -275 -332 -281 0
-304 -275 -332 -308 0
-304 -275 -332 -335 0
-304 -275 -281 -308 0
-304 -275 -281 -335 0
-304 -275 -308 -335 0
-304 -302 -329 -278 0
-304 -302 -329 -332 0
-304 -302 -329 -281 0
-304 -302 -329 -308 0
-304 -302 -329 -335 0
-304 -302 -278 -332 0
-304 -302 -278 -281 0
-304 -302 -278 -308 0
-304 -302 -278 -335 0
-304 -302 -332 -281 0
-304 -302 -332 -308 0
-304 -302 -332 -335 0
-304 -302 -281 -308 0
-304 -302 -281 -335 0
-304 -302 -308 -335 0
-304 -329 -278 -332 0
-304 -329 -278 -281 0
-304 -329 -278 -308 0
-304 -329 -278 -335 0
-304 -329 -332 -281 0
-304 -329 -332 -308 0
-304 -329 -332 -335 0
-304 -329 -281 -308 0
-304 -329 -281 -335 0
-304 -329 -308 -335 0
-304 -278 -332 -281 0
-304 -278 -332 -308 0
-304 -278 -332 -335 0
-304 -278 -281 -308 0
-304 -278 -281 -335 0
-304 -278 -308 -335 0
-304 -332 -281 -308 0
-304 -332 -281 -335 0
-304 -332 -308 -335 0
-304 -281 -308 -335 0
-304 275 302 329 278 332 281 308 0
-304 275 302 329 278 332 281 335 0
-304 275 302 329 278 332 308 335 0
-304 275 302 329 278 281 308 335 0
-304 275 302 329 332 281 308 335 0
-304 275 302 278 332 281 308 335 0
-304 275 329 278 332 281 308 335 0
-304 302 329 278 332 281 308 335 0
-305 -276 -303 -330 -279 0
-305 -276 -303 -330 -333 0
-305 -276 -303 -330 -282 0
-305 -276 -303 -330 -309 0
-305 -276 -303 -330 -336 0
-305 -276 -303 -279 -333 0
-305 -276 -303 -279 -282 0
-305 -276 -303 -279 -309 0
-305 -276 -303 -279 -336 0
-305 -276 -303 -333 -282 0
-305 -276 -303 -333 -309 0
-305 -276 -303 -333 -336 0
-305 -276 -303 -282 -309 0
-305 -276 -303 -282 -336 0
-305 -276 -303 -309 -336 0
-305 -276 -330 -279 -333 0
-305 -276 -330 -279 -282 0
-305 -276 -330 -279 -309 0
-305 -276 -330 -279 -336 0
-305 -276 -330 -333 -282 0
-305 -276 -330 -333 -309 0
-305 -276 -330 -333 -336 0
-305 -276 -330 -282 -309 0
-305 -276 -330 -282 -336 0
-305 -276 -330 -309 -336 0
-305 -276 -279 -333 -282 0
-305 -276 -279 -333 -309 0
-305 -276 -279 -333 -336 0
-305 -276 -279 -282 -309 0
-305 -276 -279 -282 -336 0
-305 -276 -279 -309 -336 0
-305 -276 -333 -282 -309 0
-305 -276 -333 -282 -336 0
-305 -276 -333 -309 -336 0
-305 -276 -282 -309 -336 0
-305 -303 -330 -279 -333 0
-305 -303 -330 -279 -282 0
-305 -303 -330 -279 -309 0
-305 -303 -330 -279 -336 0
-305 -303 -330 -333 -282 0
-305 -303 -330 -333 -309 0
-305 -303 -330 -333 -336 0
-305 -303 -330 -282 -309 0
-305 -303 -330 -282 -336 0
-305 -303 -330 -309 -336 0
-305 -303 -279 -333 -282 0
-305 -303 -279 -333 -309 0
-305 -303 -279 -333 -336 0
-305 -303 -279 -282 -309 0
-305 -303 -279 -282 -336 0
-305 -303 -279 -309 -336 0
-305 -303 -333 -282 -309 0
-305 -303 -333 -282 -336 0
-305 -303 -333 -309 -336 0
-305 -303 -282 -309 -336 0
-305 -330 -279 -333 -282 0
-305 -330 -279 -333 -309 0
-305 -330 -279 -333 -336 0
-305 -330 -279 -282 -309 0
-305 -330 -279 -282 -336 0
-305 -330 -279 -309 -336 0
-305 -330 -333 -282 -309 0
-305 -330 -333 -282 -336 0
-305 -330 -333 -309 -336 0
-305 -330 -282 -309 -336 0
-305 -279 -333 -282 -309 0
-305 -279 -333 -282 -336 0
-305 -279 -333 -309 -336 0
-305 -279 -282 -309 -336 0
-305 -333 -282 -309 -336 0
-305 276 303 330 279 333 282 0
-305 276 303 330 279 333 309 0
-305 276 303 330 279 333 336 0
-305 276 303 330 279 282 309 0
-305 276 303 330 279 282 336 0
-305 276 303 330 279 309 336 0
-305 276 303 330 333 282 309 0
-305 276 303 330 333 282 336 0
-305 276 303 330 333 309 336 0
-305 276 303 330 282 309 336 0
-305 276 303 279 333 282 309 0
-305 276 303 279 333 282 336 0
-305 276 303 279 333 309 336 0
-305 276 303 279 282 309 336 0
-305 276 303 333 282 309 336 0
-305 276 330 279 333 282 309 0
-305 276 330 279 333 282 336 0
-305 276 330 279 333 309 336 0
-305 276 330 279 282 309 336 0
-305 276 330 333 282 309 336 0
-305 276 279 333 282 309 336 0
-305 303 330 279 333 282 309 0
-305 303 330 279 333 282 336 0
-305 303 330 279 333 309 336 0
-305 303 330 279 282 309 336 0
-305 303 330 333 282 309 336 0
-305 303 279 333 282 309 336 0
-305 330 279 333 282 309 336 0
-306 -274 -301 -328 -277 -331 0
-306 -274 -301 -328 -277 -280 0
-306 -274 -301 -328 -277 -307 0
-306 -274 -301 -328 -277 -334 0
-306 -274 -301 -328 -331 -280 0
-306 -274 -301 -328 -331 -307 0
-306 -274 -301 -328 -331 -334 0
-306 -274 -301 -328 -280 -307 0
-306 -274 -301 -328 -280 -334 0
-306 -274 -301 -328 -307 -334 0
-306 -274 -301 -277 -331 -280 0
-306 -274 -301 -277 -331 -307 0
-306 -274 -301 -277 -331 -334 0
-306 -274 -301 -277 -280 -307 0
-306 -274 -301 -277 -280 -334 0
-306 -274 -301 -277 -307 -334 0
-306 -274 -301 -331 -280 -307 0
-306 -274 -301 -331 -280 -334 0
-306 -274 -301 -331 -307 -334 0
-306 -274 -301 -280 -307 -334 0
-306 -274 -328 -277 -331 -280 0
-306 -274 -328 -277 -331 -307 0
-306 -274 -328 -277 -331 -334 0
-306 -274 -328 -277 -280 -307 0
-306 -274 -328 -277 -280 -334 0
-306 -274 -328 -277 -307 -334 0
-306 -274 -328 -331 -280 -307 0
-306 -274 -328 -331 -280 -334 0
-306 -274 -328 -331 -307 -334 0
-306 -274 -328 -280 -307 -334 0
-306 -274 -277 -331 -280 -307 0
-306 -274 -277 -331 -280 -334 0
-306 -274 -277 -331 -307 -334 0
-306 -274 -277 -280 -307 -334 0
-306 -274 -331 -280 -307 -334 0
-306 -301 -328 -277 -331 -280 0
-306 -301 -328 -277 -331 -307 0
-306 -301 -328 -277 -331 -334 0
-306 -301 -328 -277 -280 -307 0
-306 -301 -328 -277 -280 -334 0
-306 -301 -328 -277 -307 -334 0
-306 -301 -328 -331 -280 -307 0
-306 -301 -328 -331 -280 -334 0
-306 -301 -328 -331 -307 -334 0
-306 -301 -328 -280 -307 -334 0
-306 -301 -277 -331 -280 -307 0
-306 -301 -277 -331 -280 -334 0
-306 -301 -277 -331 -307 -334 0
-306 -301 -277 -280 -307 -334 0
-306 -301 -331 -280 -307 -334 0
-306 -328 -277 -331 -280 -307 0
-306 -328 -277 -331 -280 -334 0
-306 -328 -277 -331 -307 -334 0
-306 -328 -277 -280 -307 -334 0
-306 -328 -331 -280 -307 -334 0
-306 -277 -331 -280 -307 -334 0
-306 274 301 328 277 331 0
-306 274 301 328 277 280 0
-306 274 301 328 277 307 0
-306 274 301 328 277 334 0
-306 274 301 328 331 280 0
-306 274 301 328 331 307 0
-306 274 301 328 331 334 0
-306 274 301 328 280 307 0
-306 274 301 328 280 334 0
-306 274 301 328 307 334 0
-306 274 301 277 331 280 0
-306 274 301 277 331 307 0
-306 274 301 277 331 334 0
-306 274 301 277 280 307 0
-306 274 301 277 280 334 0
-306 274 301 277 307 334 0
-306 274 301 331 280 307 0
-306 274 301 331 280 334 0
-306 274 301 331 307 334 0
-306 274 301 280 307 334 0
-306 274 328 277 331 280 0
-306 274 328 277 331 307 0
-306 274 328 277 331 334 0
-306 274 328 277 280 307 0
-306 274 328 277 280 334 0
-306 274 328 277 307 334 0
-306 274 328 331 280 307 0
-306 274 328 331 280 334 0
-306 274 328 331 307 334 0
-306 274 328 280 307 334 0
-306 274 277 331 280 307 0
-306 274 277 331 280 334 0
-306 274 277 331 307 334 0
-306 274 277 280 307 334 0
-306 274 331 280 307 334 0
-306 301 328 277 331 280 0
-306 301 328 277 331 307 0
-306 301 328 277 331 334 0
-306 301 328 277 280 307 0
-306 301 328 277 280 334 0
-306 301 328 277 307 334 0
-306 301 328 331 280 307 0
-306 301 328 331 280 334 0
-306 301 328 331 307 334 0
-306 301 328 280 307 334 0
-306 301 277 331 280 307 0
-306 301 277 331 280 334 0
-306 301 277 331 307 334 0
-306 301 277 280 307 334 0
-306 301 331 280 307 334 0
-306 328 277 331 280 307 0
-306 328 277 331 280 334 0
-306 328 277 331 307 334 0
-306 328 277 280 307 334 0
-306 328 331 280 307 334 0
-306 277 331 280 307 334 0
-307 -308 0
-307 -309 0
-308 -309 0
-307 -278 -305 -332 0
-307 -278 -305 -281 0
-307 -278 -305 -335 0
-307 -278 -305 -284 0
-307 -278 -305 -311 0
-307 -278 -305 -338 0
-307 -278 -332 -281 0
-307 -278 -332 -335 0
-307 -278 -332 -284 0
-307 -278 -332 -311 0
-307 -278 -332 -338 0
-307 -278 -281 -335 0
-307 -278 -281 -284 0
-307 -278 -281 -311 0
-307 -278 -281 -338 0
-307 -278 -335 -284 0
-307 -278 -335 -311 0
-307 -278 -335 -338 0
-307 -278 -284 -311 0
-307 -278 -284 -338 0
-307 -278 -311 -338 0
-307 -305 -332 -281 0
-307 -305 -332 -335 0
-307 -305 -332 -284 0
-307 -305 -332 -311 0
-307 -305 -332 -338 0
-307 -305 -281 -335 0
-307 -305 -281 -284 0
-307 -305 -281 -311 0
-307 -305 -281 -338 0
-307 -305 -335 -284 0
-307 -305 -335 -311 0
-307 -305 -335 -338 0
-307 -305 -284 -311 0
-307 -305 -284 -338 0
-307 -305 -311 -338 0
-307 -332 -281 -335 0
-307 -332 -281 -284 0
-307 -332 -281 -311 0
-307 -332 -281 -338 0
-307 -332 -335 -284 0
-307 -332 -335 -311 0
-307 -332 -335 -338 0
-307 -332 -284 -311 0
-307 -332 -284 -338 0
-307 -332 -311 -338 0
-307 -281 -335 -284 0
-307 -281 -335 -311 0
-307 -281 -335 -338 0
-307 -281 -284 -311 0
-307 -281 -284 -338 0
-307 -281 -311 -338 0
-307 -335 -284 -311 0
-307 -335 -284 -338 0
-307 -335 -311 -338 0
-307 -284 -311 -338 0
-307 278 305 332 281 335 284 311 0
-307 278 305 332 281 335 284 338 0
-307 278 305 332 281 335 311 338 0
-307 278 305 332 281 284 311 338 0
-307 278 305 332 335 284 311 338 0
-307 278 305 281 335 284 311 338 0
-307 278 332 281 335 284 311 338 0
-307 305 332 281 335 284 311 338 0
-308 -279 -306 -333 -282 0
-308 -279 -306 -333 -336 0
-308 -279 -306 -333 -285 0
-308 -279 -306 -333 -312 0
-308 -279 -306 -333 -339 0
-308 -279 -306 -282 -336 0
-308 -279 -306 -282 -285 0
-308 -279 -306 -282 -312 0
-308 -279 -306 -282 -339 0
-308 -279 -306 -336 -285 0
-308 -279 -306 -336 -312 0
-308 -279 -306 -336 -339 0
-308 -279 -306 -285 -312 0
-308 -279 -306 -285 -339 0
-308 -279 -306 -312 -339 0
-308 -279 -333 -282 -336 0
-308 -279 -333 -282 -285 0
-308 -279 -333 -282 -312 0
-308 -279 -333 -282 -339 0
-308 -279 -333 -336 -285 0
-308 -279 -333 -336 -312 0
-308 -279 -333 -336 -339 0
-308 -279 -333 -285 -312 0
-308 -279 -333 -285 -339 0
-308 -279 -333 -312 -339 0
-308 -279 -282 -336 -285 0
-308 -279 -282 -336 -312 0
-308 -279 -282 -336 -339 0
-308 -279 -282 -285 -312 0
-308 -279 -282 -285 -339 0
-308 -279 -282 -312 -339 0
-308 -279 -336 -285 -312 0
-308 -279 -336 -285 -339 0
-308 -279 -336 -312 -339 0
-308 -279 -285 -312 -339 0
-308 -306 -333 -282 -336 0
-308 -306 -333 -282 -285 0
-308 -306 -333 -282 -312 0
-308 -306 -333 -282 -339 0
-308 -306 -333 -336 -285 0
-308 -306 -333 -336 -312 0
-308 -306 -333 -336 -339 0
-308 -306 -333 -285 -312 0
-308 -306 -333 -285 -339 0
-308 -306 -333 -312 -339 0
-308 -306 -282 -336 -285 0
-308 -306 -282 -336 -312 0
-308 -306 -282 -336 -339 0
-308 -306 -282 -285 -312 0
-308 -306 -282 -285 -339 0
-308 -306 -282 -312 -339 0
-308 -306 -336 -285 -312 0
-308 -306 -336 -285 -339 0
-308 -306 -336 -312 -339 0
-308 -306 -285 -312 -339 0
-308 -333 -282 -336 -285 0
-308 -333 -282 -336 -312 0
-308 -333 -282 -336 -339 0
-308 -333 -282 -285 -312 0
-308 -333 -282 -285 -339 0
-308 -333 -282 -312 -339 0
-308 -333 -336 -285 -312 0
-308 -333 -336 -285 -339 0
-308 -333 -336 -312 -339 0
-308 -333 -285 -312 -339 0
-308 -282 -336 -285 -312 0
-308 -282 -336 -285 -339 0
-308 -282 -336 -312 -339 0
-308 -282 -285 -312 -339 0
-308 -336 -285 -312 -339 0
-308 279 306 333 282 336 285 0
-308 279 306 333 282 336 312 0
-308 279 306 333 282 336 339 0
-308 279 306 333 282 285 312 0
-308 279 306 333 282 285 339 0
-308 279 306 333 282 312 339 0
-308 279 306 333 336 285 312 0
-308 279 306 333 336 285 339 0
-308 279 306 333 336 312 339 0
-308 279 306 333 285 312 339 0
-308 279 306 282 336 285 312 0
-308 279 306 282 336 285 339 0
-308 279 306 282 336 312 339 0
-308 279 306 282 285 312 339 0
-308 279 306 336 285 312 339 0
-308 279 333 282 336 285 312 0
-308 279 333 282 336 285 339 0
-308 279 333 282 336 312 339 0
-308 279 333 282 285 312 339 0
-308 279 333 336 285 312 339 0
-308 279 282 336 285 312 339 0
-308 306 333 282 336 285 312 0
-308 306 333 282 336 285 339 0
-308 306 333 282 336 312 339 0
-308 306 333 282 285 312 339 0
-308 306 333 336 285 312 339 0
-308 306 282 336 285 312 339 0
-308 333 282 336 285 312 339 0
-309 -277 -304 -331 -280 -334 0
-309 -277 -304 -331 -280 -283 0
-309 -277 -304 -331 -280 -310 0
-309 -277 -304 -331 -280 -337 0
-309 -277 -304 -331 -334 -283 0
-309 -277 -304 -331 -334 -310 0
-309 -277 -304 -331 -334 -337 0
-309 -277 -304 -331 -283 -310 0
-309 -277 -304 -331 -283 -337 0
-309 -277 -304 -331 -310 -337 0
-309 -277 -304 -280 -334 -283 0
-309 -277 -304 -280 -334 -310 0
-309 -277 -304 -280 -334 -337 0
-309 -277 -304 -280 -283 -310 0
-309 -277 -304 -280 -283 -337 0
-309 -277 -304 -280 -310 -337 0
-309 -277 -304 -334 -283 -310 0
-309 -277 -304 -334 -283 -337 0
-309 -277 -304 -334 -310 -337 0
-309 -277 -304 -283 -310 -337 0
-309 -277 -331 -280 -334 -283 0
-309 -277 -331 -280 -334 -310 0
-309 -277 -331 -280 -334 -337 0
-309 -277 -331 -280 -283 -310 0
-309 -277 -331 -280 -283 -337 0
-309 -277 -331 -280 -310 -337 0
-309 -277 -331 -334 -283 -310 0
-309 -277 -331 -334 -283 -337 0
-309 -277 -331 -334 -310 -337 0
-309 -277 -331 -283 -310 -337 0
-309 -277 -280 -334 -283 -310 0
-309 -277 -280 -334 -283 -337 0
-309 -277 -280 -334 -310 -337 0
-309 -277 -280 -283 -310 -337 0
-309 -277 -334 -283 -310 -337 0
-309 -304 -331 -280 -334 -283 0
-309 -304 -331 -280 -334 -310 0
-309 -304 -331 -280 -334 -337 0
-309 -304 -331 -280 -283 -310 0
-309 -304 -331 -280 -283 -337 0
-309 -304 -331 -280 -310 -337 0
-309 -304 -331 -334 -283 -310 0
-309 -304 -331 -334 -283 -337 0
-309 -304 -331 -334 -310 -337 0
-309 -304 -331 -283 -310 -337 0
-309 -304 -280 -334 -283 -310 0
-309 -304 -280 -334 -283 -337 0
-309 -304 -280 -334 -310 -337 0
-309 -304 -280 -283 -310 -337 0
-309 -304 -334 -283 -310 -337 0
-309 -331 -280 -334 -283 -310 0
-309 -331 -280 -334 -283 -337 0
-309 -331 -280 -334 -310 -337 0
-309 -331 -280 -283 -310 -337 0
-309 -331 -334 -283 -310 -337 0
-309 -280 -334 -283 -310 -337 0
-309 277 304 331 280 334 0
-309 277 304 331 280 283 0
-309 277 304 331 280 310 0
-309 277 304 331 280 337 0
-309 277 304 331 334 283 0
-309 277 304 331 334 310 0
-309 277 304 331 334 337 0
-309 277 304 331 283 310 0
-309 277 304 331 283 337 0
-309 277 304 331 310 337 0
-309 277 304 280 334 283 0
-309 277 304 280 334 310 0
-309 277 304 280 334 337 0
-309 277 304 280 283 310 0
-309 277 304 280 283 337 0
-309 277 304 280 310 337 0
-309 277 304 334 283 310 0
-309 277 304 334 283 337 0
-309 277 304 334 310 337 0
-309 277 304 283 310 337 0
-309 277 331 280 334 283 0
-309 277 331 280 334 310 0
-309 277 331 280 334 337 0
-309 277 331 280 283 310 0
-309 277 331 280 283 337 0
-309 277 331 280 310 337 0
-309 277 331 334 283 310 0
-309 277 331 334 283 337 0
-309 277 331 334 310 337 0
-309 277 331 283 310 337 0
-309 277 280 334 283 310 0
-309 277 280 334 283 337 0
-309 277 280 334 310 337 0
-309 277 280 283 310 337 0
-309 277 334 283 310 337 0
-309 304 331 280 334 283 0
-309 304 331 280 334 310 0
-309 304 331 280 334 337 0
-309 304 331 280 283 310 0
-309 304 331 280 283 337 0
-309 304 331 280 310 337 0
-309 304 331 334 283 310 0
-309 304 331 334 283 337 0
-309 304 331 334 310 337 0
-309 304 331 283 310 337 0
-309 304 280 334 283 310 0
-309 304 280 334 283 337 0
-309 304 280 334 310 337 0
-309 304 280 283 310 337 0
-309 304 334 283 310 337 0
-309 331 280 334 283 310 0
-309 331 280 334 283 337 0
-309 331 280 334 310 337 0
-309 331 280 283 310 337 0
-309 331 334 283 310 337 0
-309 280 334 283 310 337 0
-310 -311 0
-310 -312 0
-311 -312 0
-310 -281 -308 -335 0
-310 -281 -308 -284 0
-310 -281 -308 -338 0
-310 -281 -308 -287 0
-310 -281 -308 -314 0
-310 -281 -308 -341 0
-310 -281 -335 -284 0
-310 -281 -335 -338 0
-310 -281 -335 -287 0
-310 -281 -335 -314 0
-310 -281 -335 -341 0
-310 -281 -284 -338 0
-310 -281 -284 -287 0
-310 -281 -284 -314 0
-310 -281 -284 -341 0
-310 -281 -338 -287 0
-310 -281 -338 -314 0
-310 -281 -338 -341 0
-310 -281 -287 -314 0
-310 -281 -287 -341 0
-310 -281 -314 -341 0
-310 -308 -335 -284 0
-310 -308 -335 -338 0
-310 -308 -335 -287 0
-310 -308 -335 -314 0
-310 -308 -335 -341 0
-310 -308 -284 -338 0
-310 -308 -284 -287 0
-310 -308 -284 -314 0
-310 -308 -284 -341 0
-310 -308 -338 -287 0
-310 -308 -338 -314 0
-310 -308 -338 -341 0
-310 -308 -287 -314 0
-310 -308 -287 -341 0
-310 -308 -314 -341 0
-310 -335 -284 -338 0
-310 -335 -284 -287 0
-310 -335 -284 -314 0
-310 -335 -284 -341 0
-310 -335 -338 -287 0
-310 -335 -338 -314 0
-310 -335 -338 -341 0
-310 -335 -287 -314 0
-310 -335 -287 -341 0
-310 -335 -314 -341 0
-310 -284 -338 -287 0
-310 -284 -338 -314 0
-310 -284 -338 -341 0
-310 -284 -287 -314 0
-310 -284 -287 -341 0
-310 -284 -314 -341 0
-310 -338 -287 -314 0
-310 -338 -287 -341 0
-310 -338 -314 -341 0
-310 -287 -314 -341 0
-310 281 308 335 284 338 287 314 0
-310 281 308 335 284 338 287 341 0
-310 281 308 335 284 338 314 341 0
-310 281 308 335 284 287 314 341 0
-310 281 308 335 338 287 314 341 0
-310 281 308 284 338 287 314 341 0
-310 281 335 284 338 287 314 341 0
-310 308 335 284 338 287 314 341 0
-311 -282 -309 -336 -285 0
-311 -282 -309 -336 -339 0
-311 -282 -309 -336 -288 0
-311 -282 -309 -336 -315 0
-311 -282 -309 -336 -342 0
-311 -282 -309 -285 -339 0
-311 -282 -309 -285 -288 0
-311 -282 -309 -285 -315 0
-311 -282 -309 -285 -342 0
-311 -282 -309 -339 -288 0
-311 -282 -309 -339 -315 0
-311 -282 -309 -339 -342 0
-311 -282 -309 -288 -315 0
-311 -282 -309 -288 -342 0
-311 -282 -309 -315 -342 0
-311 -282 -336 -285 -339 0
-311 -282 -336 -285 -288 0
-311 -282 -336 -285 -315 0
-311 -282 -336 -285 -342 0
-311 -282 -336 -339 -288 0
-311 -282 -336 -339 -315 0
-311 -282 -336 -339 -342 0
-311 -282 -336 -288 -315 0
-311 -282 -336 -288 -342 0
-311 -282 -336 -315 -342 0
-311 -282 -285 -339 -288 0
-311 -282 -285 -339 -315 0
-311 -282 -285 -339 -342 0
-311 -282 -285 -288 -315 0
-311 -282 -285 -288 -342 0
-311 -282 -285 -315 -342 0
-311 -282 -339 -288 -315 0
-311 -282 -339 -288 -342 0
-311 -282 -339 -315 -342 0
-311 -282 -288 -315 -342 0
-311 -309 -336 -285 -339 0
-311 -309 -336 -285 -288 0
-311 -309 -336 -285 -315 0
-311 -309 -336 -285 -342 0
-311 -309 -336 -339 -288 0
-311 -309 -336 -339 -315 0
-311 -309 -336 -339 -342 0
-311 -309 -336 -288 -315 0
-311 -309 -336 -288 -342 0
-311 -309 -336 -315 -342 0
-311 -309 -285 -339 -288 0
-311 -309 -285 -339 -315 0
-311 -309 -285 -339 -342 0
-311 -309 -285 -288 -315 0
-311 -309 -285 -288 -342 0
-311 -309 -285 -315 -342 0
-311 -309 -339 -288 -315 0
-311 -309 -339 -288 -342 0
-311 -309 -339 -315 -342 0
-311 -309 -288 -315 -342 0
-311 -336 -285 -339 -288 0
-311 -336 -285 -339 -315 0
-311 -336 -285 -339 -342 0
-311 -336 -285 -288 -315 0
-311 -336 -285 -288 -342 0
-311 -336 -285 -315 -342 0
-311 -336 -339 -288 -315 0
-311 -336 -339 -288 -342 0
-311 -336 -339 -315 -342 0
-311 -336 -288 -315 -342 0
-311 -285 -339 -288 -315 0
-311 -285 -339 -288 -342 0
-311 -285 -339 -315 -342 0
-311 -285 -288 -315 -342 0
-311 -339 -288 -315 -342 0
-311 282 309 336 285 339 288 0
-311 282 309 336 285 339 315 0
-311 282 309 336 285 339 342 0
-311 282 309 336 285 288 315 0
-311 282 309 336 285 288 342 0
-311 282 309 336 285 315 342 0
-311 282 309 336 339 288 315 0
-311 282 309 336 339 288 342 0
-311 282 309 336 339 315 342 0
-311 282 309 336 288 315 342 0
-311 282 309 285 339 288 315 0
-311 282 309 285 339 288 342 0
-311 282 309 285 339 315 342 0
-311 282 309 285 288 315 342 0
-311 282 309 339 288 315 342 0
-311 282 336 285 339 288 315 0
-311 282 336 285 339 288 342 0
-311 282 336 285 339 315 342 0
-311 282 336 285 288 315 342 0
-311 282 336 339 288 315 342 0
-311 282 285 339 288 315 342 0
-311 309 336 285 339 288 315 0
-311 309 336 285 339 288 342 0
-311 309 336 285 339 315 342 0
-311 309 336 285 288 315 342 0
-311 309 336 339 288 315 342 0
-311 309 285 339 288 315 342 0
-311 336 285 339 288 315 342 0
-312 -280 -307 -334 -283 -337 0
-312 -280 -307 -334 -283 -286 0
-312 -280 -307 -334 -283 -313 0
-312 -280 -307 -334 -283 -340 0
-312 -280 -307 -334 -337 -286 0
-312 -280 -307 -334 -337 -313 0
-312 -280 -307 -334 -337 -340 0
-312 -280 -307 -334 -286 -313 0
-312 -280 -307 -334 -286 -340 0
-312 -280 -307 -334 -313 -340 0
-312 -280 -307 -283 -337 -286 0
-312 -280 -307 -283 -337 -313 0
-312 -280 -307 -283 -337 -340 0
-312 -280 -307 -283 -286 -313 0
-312 -280 -307 -283 -286 -340 0
-312 -280 -307 -283 -313 -340 0
-312 -280 -307 -337 -286 -313 0
-312 -280 -307 -337 -286 -340 0
-312 -280 -307 -337 -313 -340 0
-312 -280 -307 -286 -313 -340 0
-312 -280 -334 -283 -337 -286 0
-312 -280 -334 -283 -337 -313 0
-312 -280 -334 -283 -337 -340 0
-312 -280 -334 -283 -286 -313 0
-312 -280 -334 -283 -286 -340 0
-312 -280 -334 -283 -313 -340 0
-312 -280 -334 -337 -286 -313 0
-312 -280 -334 -337 -286 -340 0
-312 -280 -334 -337 -313 -340 0
-312 -280 -334 -286 -313 -340 0
-312 -280 -283 -337 -286 -313 0
-312 -280 -283 -337 -286 -340 0
-312 -280 -283 -337 -313 -340 0
-312 -280 -283 -286 -313 -340 0
-312 -280 -337 -286 -313 -340 0
-312 -307 -334 -283 -337 -286 0
-312 -307 -334 -283 -337 -313 0
-312 -307 -334 -283 -337 -340 0
-312 -307 -334 -283 -286 -313 0
-312 -307 -334 -283 -286 -340 0
-312 -307 -334 -283 -313 -340 0
-312 -307 -334 -337 -286 -313 0
-312 -307 -334 -337 -286 -340 0
-312 -307 -334 -337 -313 -340 0
-312 -307 -334 -286 -313 -340 0
-312 -307 -283 -337 -286 -313 0
-312 -307 -283 -337 -286 -340 0
-312 -307 -283 -337 -313 -340 0
-312 -307 -283 -286 -313 -340 0
-312 -307 -337 -286 -313 -340 0
-312 -334 -283 -337 -286 -313 0
-312 -334 -283 -337 -286 -340 0
-312 -334 -283 -337 -313 -340 0
-312 -334 -283 -286 -313 -340 0
-312 -334 -337 -286 -313 -340 0
-312 -283 -337 -286 -313 -340 0
-312 280 307 334 283 337 0
-312 280 307 334 283 286 0
-312 280 307 334 283 313 0
-312 280 307 334 283 340 0
-312 280 307 334 337 286 0
-312 280 307 334 337 313 0
-312 280 307 334 337 340 0
-312 280 307 334 286 313 0
-312 280 307 334 286 340 0
-312 280 307 334 313 340 0
-312 280 307 283 337 286 0
-312 280 307 283 337 313 0
-312 280 307 283 337 340 0
-312 280 307 283 286 313 0
-312 280 307 283 286 340 0
-312 280 307 283 313 340 0
-312 280 307 337 286 313 0
-312 280 307 337 286 340 0
-312 280 307 337 313 340 0
-312 280 307 286 313 340 0
-312 280 334 283 337 286 0
-312 280 334 283 337 313 0
-312 280 334 283 337 340 0
-312 280 334 283 286 313 0
-312 280 334 283 286 340 0
-312 280 334 283 313 340 0
-312 280 334 337 286 313 0
-312 280 334 337 286 340 0
-312 280 334 337 313 340 0
-312 280 334 286 313 340 0
-312 280 283 337 286 313 0
-312 280 283 337 286 340 0
-312 280 283 337 313 340 0
-312 280 283 286 313 340 0
-312 280 337 286 313 340 0
-312 307 334 283 337 286 0
-312 307 334 283 337 313 0
-312 307 334 283 337 340 0
-312 307 334 283 286 313 0
-312 307 334 283 286 340 0
-312 307 334 283 313 340 0
-312 307 334 337 286 313 0
-312 307 334 337 286 340 0
-312 307 334 337 313 340 0
-312 307 334 286 313 340 0
-312 307 283 337 286 313 0
-312 307 283 337 286 340 0
-312 307 283 337 313 340 0
-312 307 283 286 313 340 0
-312 307 337 286 313 340 0
-312 334 283 337 286 313 0
-312 334 283 337 286 340 0
-312 334 283 337 313 340 0
-312 334 283 286 313 340 0
-312 334 337 286 313 340 0
-312 283 337 286 313 340 0
-313 -314 0
-313 -315 0
-314 -315 0
-313 -284 -311 -338 0
-313 -284 -311 -287 0
-313 -284 -311 -341 0
-313 -284 -311 -290 0
-313 -284 -311 -317 0
-313 -284 -311 -344 0
-313 -284 -338 -287 0
-313 -284 -338 -341 0
-313 -284 -338 -290 0
-313 -284 -338 -317 0
-313 -284 -338 -344 0
-313 -284 -287 -341 0
-313 -284 -287 -290 0
-313 -284 -287 -317 0
-313 -284 -287 -344 0
-313 -284 -341 -290 0
-313 -284 -341 -317 0
-313 -284 -341 -344 0
-313 -284 -290 -317 0
-313 -284 -290 -344 0
-313 -284 -317 -344 0
-313 -311 -338 -287 0
-313 -311 -338 -341 0
-313 -311 -338 -290 0
-313 -311 -338 -317 0
-313 -311 -338 -344 0
-313 -311 -287 -341 0
-313 -311 -287 -290 0
-313 -311 -287 -317 0
-313 -311 -287 -344 0
-313 -311 -341 -290 0
-313 -311 -341 -317 0
-313 -311 -341 -344 0
-313 -311 -290 -317 0
-313 -311 -290 -344 0
-313 -311 -317 -344 0
-313 -338 -287 -341 0
-313 -338 -287 -290 0
-313 -338 -287 -317 0
-313 -338 -287 -344 0
-313 -338 -341 -290 0
-313 -338 -341 -317 0
-313 -338 -341 -344 0
-313 -338 -290 -317 0
-313 -338 -290 -344 0
-313 -338 -317 -344 0
-313 -287 -341 -290 0
-313 -287 -341 -317 0
-313 -287 -341 -344 0
-313 -287 -290 -317 0
-313 -287 -290 -344 0
-313 -287 -317 -344 0
-313 -341 -290 -317 0
-313 -341 -290 -344 0
-313 -341 -317 -344 0
-313 -290 -317 -344 0
-313 284 311 338 287 341 290 317 0
-313 284 311 338 287 341 290 344 0
-313 284 311 338 287 341 317 344 0
-313 284 311 338 287 290 317 344 0
-313 284 311 338 341 290 317 344 0
-313 284 311 287 341 290 317 344 0
-313 284 338 287 341 290 317 344 0
-313 311 338 287 341 290 317 344 0
-314 -285 -312 -339 -288 0
-314 -285 -312 -339 -342 0
-314 -285 -312 -339 -291 0
-314 -285 -312 -339 -318 0
-314 -285 -312 -339 -345 0
-314 -285 -312 -288 -342 0
-314 -285 -312 -288 -291 0
-314 -285 -312 -288 -318 0
-314 -285 -312 -288 -345 0
-314 -285 -312 -342 -291 0
-314 -285 -312 -342 -318 0
-314 -285 -312 -342 -345 0
-314 -285 -312 -291 -318 0
-314 -285 -312 -291 -345 0
-314 -285 -312 -318 -345 0
-314 -285 -339 -288 -342 0
-314 -285 -339 -288 -291 0
-314 -285 -339 -288 -318 0
-314 -285 -339 -288 -345 0
-314 -285 -339 -342 -291 0
-314 -285 -339 -342 -318 0
-314 -285 -339 -342 -345 0
-314 -285 -339 -291 -318 0
-314 -285 -339 -291 -345 0
-314 -285 -339 -318 -345 0
-314 -285 -288 -342 -291 0
-314 -285 -288 -342 -318 0
-314 -285 -288 -342 -345 0
-314 -285 -288 -291 -318 0
-314 -285 -288 -291 -345 0
-314 -285 -288 -318 -345 0
-314 -285 -342 -291 -318 0
-314 -285 -342 -291 -345 0
-314 -285 -342 -318 -345 0
-314 -285 -291 -318 -345 0
-314 -312 -339 -288 -342 0
-314 -312 -339 -288 -291 0
-314 -312 -339 -288 -318 0
-314 -312 -339 -288 -345 0
-314 -312 -339 -342 -291 0
-314 -312 -339 -342 -318 0
-314 -312 -339 -342 -345 0
-314 -312 -339 -291 -318 0
-314 -312 -339 -291 -345 0
-314 -312 -339 -318 -345 0
-314 -312 -288 -342 -291 0
-314 -312 -288 -342 -318 0
-314 -312 -288 -342 -345 0
-314 -312 -288 -291 -318 0
-314 -312 -288 -291 -345 0
-314 -312 -288 -318 -345 0
-314 -312 -342 -291 -318 0
-314 -312 -342 -291 -345 0
-314 -312 -342 -318 -345 0
-314 -312 -291 -318 -345 0
-314 -339 -288 -342 -291 0
-314 -339 -288 -342 -318 0
-314 -339 -288 -342 -345 0
-314 -339 -288 -291 -318 0
-314 -339 -288 -291 -345 0
-314 -339 -288 -318 -345 0
-314 -339 -342 -291 -318 0
-314 -339 -342 -291 -345 0
-314 -339 -342 -318 -345 0
-314 -339 -291 -318 -345 0
-314 -288 -342 -291 -318 0
-314 -288 -342 -291 -345 0
-314 -288 -342 -318 -345 0
-314 -288 -291 -318 -345 0
-314 -342 -291 -318 -345 0
-314 285 312 339 288 342 291 0
-314 285 312 339 288 342 318 0
-314 285 312 339 288 342 345 0
-314 285 312 339 288 291 318 0
-314 285 312 339 288 291 345 0
-314 285 312 339 288 318 345 0
-314 285 312 339 342 291 318 0
-314 285 312 339 342 291 345 0
-314 285 312 339 342 318 345 0
-314 285 312 339 291 318 345 0
-314 285 312 288 342 291 318 0
-314 285 312 288 342 291 345 0
-314 285 312 288 342 318 345 0
-314 285 312 288 291 318 345 0
-314 285 312 342 291 318 345 0
-314 285 339 288 342 291 318 0
-314 285 339 288 342 291 345 0
-314 285 339 288 342 318 345 0
-314 285 339 288 291 318 345 0
-314 285 339 342 291 318 345 0
-314 285 288 342 291 318 345 0
-314 312 339 288 342 291 318 0
-314 312 339 288 342 291 345 0
-314 312 339 288 342 318 345 0
-314 312 339 288 291 318 345 0
-314 312 339 342 291 318 345 0
-314 312 288 342 291 318 345 0
-314 339 288 342 291 318 345 0
-315 -283 -310 -337 -286 -340 0
-315 -283 -310 -337 -286 -289 0
-315 -283 -310 -337 -286 -316 0
-315 -283 -310 -337 -286 -343 0
-315 -283 -310 -337 -340 -289 0
-315 -283 -310 -337 -340 -316 0
-315 -283 -310 -337 -340 -343 0
-315 -283 -310 -337 -289 -316 0
-315 -283 -310 -337 -289 -343 0
-315 -283 -310 -337 -316 -343 0
-315 -283 -310 -286 -340 -289 0
-315 -283 -310 -286 -340 -316 0
-315 -283 -310 -286 -340 -343 0
-315 -283 -310 -286 -289 -316 0
-315 -283 -310 -286 -289 -343 0
-315 -283 -310 -286 -316 -343 0
-315 -283 -310 -340 -289 -316 0
-315 -283 -310 -340 -289 -343 0
-315 -283 -310 -340 -316 -343 0
-315 -283 -310 -289 -316 -343 0
-315 -283 -337 -286 -340 -289 0
-315 -283 -337 -286 -340 -316 0
-315 -283 -337 -286 -340 -343 0
-315 -283 -337 -286 -289 -316 0
-315 -283 -337 -286 -289 -343 0
-315 -283 -337 -286 -316 -343 0
-315 -283 -337 -340 -289 -316 0
-315 -283 -337 -340 -289 -343 0
-315 -283 -337 -340 -316 -343 0
-315 -283 -337 -289 -316 -343 0
-315 -283 -286 -340 -289 -316 0
-315 -283 -286 -340 -289 -343 0
-315 -283 -286 -340 -316 -343 0
-315 -283 -286 -289 -316 -343 0
-315 -283 -340 -289 -316 -343 0
-315 -310 -337 -286 -340 -289 0
-315 -310 -337 -286 -340 -316 0
-315 -310 -337 -286 -340 -343 0
-315 -310 -337 -286 -289 -316 0
-315 -310 -337 -286 -289 -343 0
-315 -310 -337 -286 -316 -343 0
-315 -310 -337 -340 -289 -316 0
-315 -310 -337 -340 -289 -343 0
-315 -310 -337 -340 -316 -343 0
-315 -310 -337 -289 -316 -343 0
-315 -310 -286 -340 -289 -316 0
-315 -310 -286 -340 -289 -343 0
-315 -310 -286 -340 -316 -343 0
-315 -310 -286 -289 -316 -343 0
-315 -310 -340 -289 -316 -343 0
-315 -337 -286 -340 -289 -316 0
-315 -337 -286 -340 -289 -343 0
-315 -337 -286 -340 -316 -343 0
-315 -337 -286 -289 -316 -343 0
-315 -337 -340 -289 -316 -343 0
-315 -286 -340 -289 -316 -343 0
-315 283 310 337 286 340 0
-315 283 310 337 286 289 0
-315 283 310 337 286 316 0
-315 283 310 337 286 343 0
-315 283 310 337 340 289 0
-315 283 310 337 340 316 0
-315 283 310 337 340 343 0
-315 283 310 337 289 316 0
-315 283 310 337 289 343 0
-315 283 310 337 316 343 0
-315 283 310 286 340 289 0
-315 283 310 286 340 316 0
-315 283 310 286 340 343 0
-315 283 310 286 289 316 0
-315 283 310 286 289 343 0
-315 283 310 286 316 343 0
-315 283 310 340 289 316 0
-315 283 310 340 289 343 0
-315 283 310 340 316 343 0
-315 283 310 289 316 343 0
-315 283 337 286 340 289 0
-315 283 337 286 340 316 0
-315 283 337 286 340 343 0
-315 283 337 286 289 316 0
-315 283 337 286 289 343 0
-315 283 337 286 316 343 0
-315 283 337 340 289 316 0
-315 283 337 340 289 343 0
-315 283 337 340 316 343 0
-315 283 337 289 316 343 0
-315 283 286 340 289 316 0
-315 283 286 340 289 343 0
-315 283 286 340 316 343 0
-315 283 286 289 316 343 0
-315 283 340 289 316 343 0
-315 310 337 286 340 289 0
-315 310 337 286 340 316 0
-315 310 337 286 340 343 0
-315 310 337 286 289 316 0
-315 310 337 286 289 343 0
-315 310 337 286 316 343 0
-315 310 337 340 289 316 0
-315 310 337 340 289 343 0
-315 310 337 340 316 343 0
-315 310 337 289 316 343 0
-315 310 286 340 289 316 0
-315 310 286 340 289 343 0
-315 310 286 340 316 343 0
-315 310 286 289 316 343 0
-315 310 340 289 316 343 0
-315 337 286 340 289 316 0
-315 337 286 340 289 343 0
-315 337 286 340 316 343 0
-315 337 286 289 316 343 0
-315 337 340 289 316 343 0
-315 286 340 289 316 343 0
-316 -317 0
-316 -318 0
-317 -318 0
-316 -287 -314 -341 0
-316 -287 -314 -290 0
-316 -287 -314 -344 0
-316 -287 -314 -293 0
-316 -287 -314 -320 0
-316 -287 -314 -347 0
-316 -287 -341 -290 0
-316 -287 -341 -344 0
-316 -287 -341 -293 0
-316 -287 -341 -320 0
-316 -287 -341 -347 0
-316 -287 -290 -344 0
-316 -287 -290 -293 0
-316 -287 -290 -320 0
-316 -287 -290 -347 0
-316 -287 -344 -293 0
-316 -287 -344 -320 0
-316 -287 -344 -347 0
-316 -287 -293 -320 0
-316 -287 -293 -347 0
-316 -287 -320 -347 0
-316 -314 -341 -290 0
-316 -314 -341 -344 0
-316 -314 -341 -293 0
-316 -314 -341 -320 0
-316 -314 -341 -347 0
-316 -314 -290 -344 0
-316 -314 -290 -293 0
-316 -314 -290 -320 0
-316 -314 -290 -347 0
-316 -314 -344 -293 0
-316 -314 -344 -320 0
-316 -314 -344 -347 0
-316 -314 -293 -320 0
-316 -314 -293 -347 0
-316 -314 -320 -347 0
-316 -341 -290 -344 0
-316 -341 -290 -293 0
-316 -341 -290 -320 0
-316 -341 -290 -347 0
-316 -341 -344 -293 0
-316 -341 -344 -320 0
-316 -341 -344 -347 0
-316 -341 -293 -320 0
-316 -341 -293 -347 0
-316 -341 -320 -347 0
-316 -290 -344 -293 0
-316 -290 -344 -320 0
-316 -290 -344 -347 0
-316 -290 -293 -320 0
-316 -290 -293 -347 0
-316 -290 -320 -347 0
-316 -344 -293 -320 0
-316 -344 -293 -347 0
-316 -344 -320 -347 0
-316 -293 -320 -347 0
-316 287 314 341 290 344 293 320 0
-316 287 314 341 290 344 293 347 0
-316 287 314 341 290 344 320 347 0
-316 287 314 341 290 293 320 347 0
-316 287 314 341 344 293 320 347 0
-316 287 314 290 344 293 320 347 0
-316 287 341 290 344 293 320 347 0
-316 314 341 290 344 293 320 347 0
-317 -288 -315 -342 -291 0
-317 -288 -315 -342 -345 0
-317 -288 -315 -342 -294 0
-317 -288 -315 -342 -321 0
-317 -288 -315 -342 -348 0
-317 -288 -315 -291 -345 0
-317 -288 -315 -291 -294 0
-317 -288 -315 -291 -321 0
-317 -288 -315 -291 -348 0
-317 -288 -315 -345 -294 0
-317 -288 -315 -345 -321 0
-317 -288 -315 -345 -348 0
-317 -288 -315 -294 -321 0
-317 -288 -315 -294 -348 0
-317 -288 -315 -321 -348 0
-317 -288 -342 -291 -345 0
-317 -288 -342 -291 -294 0
-317 -288 -342 -291 -321 0
-317 -288 -342 -291 -348 0
-317 -288 -342 -345 -294 0
-317 -288 -342 -345 -321 0
-317 -288 -342 -345 -348 0
-317 -288 -342 -294 -321 0
-317 -288 -342 -294 -348 0
-317 -288 -342 -321 -348 0
-317 -288 -291 -345 -294 0
-317 -288 -291 -345 -321 0
-317 -288 -291 -345 -348 0
-317 -288 -291 -294 -321 0
-317 -288 -291 -294 -348 0
-317 -288 -291 -321 -348 0
-317 -288 -345 -294 -321 0
-317 -288 -345 -294 -348 0
-317 -288 -345 -321 -348 0
-317 -288 -294 -321 -348 0
-317 -315 -342 -291 -345 0
-317 -315 -342 -291 -294 0
-317 -315 -342 -291 -321 0
-317 -315 -342 -291 -348 0
-317 -315 -342 -345 -294 0
-317 -315 -342 -345 -321 0
-317 -315 -342 -345 -348 0
-317 -315 -342 -294 -321 0
-317 -315 -342 -294 -348 0
-317 -315 -342 -321 -348 0
-317 -315 -291 -345 -294 0
-317 -315 -291 -345 -321 0
-317 -315 -291 -345 -348 0
-317 -315 -291 -294 -321 0
-317 -315 -291 -294 -348 0
-317 -315 -291 -321 -348 0
-317 -315 -345 -294 -321 0
-317 -315 -345 -294 -348 0
-317 -315 -345 -321 -348 0
-317 -315 -294 -321 -348 0
-317 -342 -291 -345 -294 0
-317 -342 -291 -345 -321 0
-317 -342 -291 -345 -348 0
-317 -342 -291 -294 -321 0
-317 -342 -291 -294 -348 0
-317 -342 -291 -321 -348 0
-317 -342 -345 -294 -321 0
-317 -342 -345 -294 -348 0
-317 -342 -345 -321 -348 0
-317 -342 -294 -321 -348 0
-317 -291 -345 -294 -321 0
-317 -291 -345 -294 -348 0
-317 -291 -345 -321 -348 0
-317 -291 -294 -321 -348 0
-317 -345 -294 -321 -348 0
-317 288 315 342 291 345 294 0
-317 288 315 342 291 345 321 0
-317 288 315 342 291 345 348 0
-317 288 315 342 291 294 321 0
-317 288 315 342 291 294 348 0
-317 288 315 342 291 321 348 0
-317 288 315 342 345 294 321 0
-317 288 315 342 345 294 348 0
-317 288 315 342 345 321 348 0
-317 288 315 342 294 321 348 0
-317 288 315 291 345 294 321 0
-317 288 315 291 345 294 348 0
-317 288 315 291 345 321 348 0
-317 288 315 291 294 321 348 0
-317 288 315 345 294 321 348 0
-317 288 342 291 345 294 321 0
-317 288 342 291 345 294 348 0
-317 288 342 291 345 321 348 0
-317 288 342 291 294 321 348 0
-317 288 342 345 294 321 348 0
-317 288 291 345 294 321 348 0
-317 315 342 291 345 294 321 0
-317 315 342 291 345 294 348 0
-317 315 342 291 345 321 348 0
-317 315 342 291 294 321 348 0
-317 315 342 345 294 321 348 0
-317 315 291 345 294 321 348 0
-317 342 291 345 294 321 348 0
-318 -286 -313 -340 -289 -343 0
-318 -286 -313 -340 -289 -292 0
-318 -286 -313 -340 -289 -319 0
-318 -286 -313 -340 -289 -346 0
-318 -286 -313 -340 -343 -292 0
-318 -286 -313 -340 -343 -319 0
-318 -286 -313 -340 -343 -346 0
-318 -286 -313 -340 -292 -319 0
-318 -286 -313 -340 -292 -346 0
-318 -286 -313 -340 -319 -346 0
-318 -286 -313 -289 -343 -292 0
-318 -286 -313 -289 -343 -319 0
-318 -286 -313 -289 -343 -346 0
-318 -286 -313 -289 -292 -319 0
-318 -286 -313 -289 -292 -346 0
-318 -286 -313 -289 -319 -346 0
-318 -286 -313 -343 -292 -319 0
-318 -286 -313 -343 -292 -346 0
-318 -286 -313 -343 -319 -346 0
-318 -286 -313 -292 -319 -346 0
-318 -286 -340 -289 -343 -292 0
-318 -286 -340 -289 -343 -319 0
-318 -286 -340 -289 -343 -346 0
-318 -286 -340 -289 -292 -319 0
-318 -286 -340 -289 -292 -346 0
-318 -286 -340 -289 -319 -346 0
-318 -286 -340 -343 -292 -319 0
-318 -286 -340 -343 -292 -346 0
-318 -286 -340 -343 -319 -346 0
-318 -286 -340 -292 -319 -346 0
-318 -286 -289 -343 -292 -319 0
-318 -286 -289 -343 -292 -346 0
-318 -286 -289 -343 -319 -346 0
-318 -286 -289 -292 -319 -346 0
-318 -286 -343 -292 -319 -346 0
-318 -313 -340 -289 -343 -292 0
-318 -313 -340 -289 -343 -319 0
-318 -313 -340 -289 -343 -346 0
-318 -313 -340 -289 -292 -319 0
-318 -313 -340 -289 -292 -346 0
-318 -313 -340 -289 -319 -346 0
-318 -313 -340 -343 -292 -319 0
-318 -313 -340 -343 -292 -346 0
-318 -313 -340 -343 -319 -346 0
-318 -313 -340 -292 -319 -346 0
-318 -313 -289 -343 -292 -319 0
-318 -313 -289 -343 -292 -346 0
-318 -313 -289 -343 -319 -346 0
-318 -313 -289 -292 -319 -346 0
-318 -313 -343 -292 -319 -346 0
-318 -340 -289 -343 -292 -319 0
-318 -340 -289 -343 -292 -346 0
-318 -340 -289 -343 -319 -346 0
-318 -340 -289 -292 -319 -346 0
-318 -340 -343 -292 -319 -346 0
-318 -289 -343 -292 -319 -346 0
-318 286 313 340 289 343 0
-318 286 313 340 289 292 0
-318 286 313 340 289 319 0
-318 286 313 340 289 346 0
-318 286 313 340 343 292 0
-318 286 313 340 343 319 0
-318 286 313 340 343 346 0
-318 286 313 340 292 319 0
-318 286 313 340 292 346 0
-318 286 313 340 319 346 0
-318 286 313 289 343 292 0
-318 286 313 289 343 319 0
-318 286 313 289 343 346 0
-318 286 313 289 292 319 0
-318 286 313 289 292 346 0
-318 286 313 289 319 346 0
-318 286 313 343 292 319 0
-318 286 313 343 292 346 0
-318 286 313 343 319 346 0
-318 286 313 292 319 346 0
-318 286 340 289 343 292 0
-318 286 340 289 343 319 0
-318 286 340 289 343 346 0
-318 286 340 289 292 319 0
-318 286 340 289 292 346 0
-318 286 340 289 319 346 0
-318 286 340 343 292 319 0
-318 286 340 343 292 346 0
-318 286 340 343 319 346 0
-318 286 340 292 319 346 0
-318 286 289 343 292 319 0
-318 286 289 343 292 346 0
-318 286 289 343 319 346 0
-318 286 289 292 319 346 0
-318 286 343 292 319 346 0
-318 313 340 289 343 292 0
-318 313 340 289 343 319 0
-318 313 340 289 343 346 0
-318 313 340 289 292 319 0
-318 313 340 289 292 346 0
-318 313 340 289 319 346 0
-318 313 340 343 292 319 0
-318 313 340 343 292 346 0
-318 313 340 343 319 346 0
-318 313 340 292 319 346 0
-318 313 289 343 292 319 0
-318 313 289 343 292 346 0
-318 313 289 343 319 346 0
-318 313 289 292 319 346 0
-318 313 343 292 319 346 0
-318 340 289 343 292 319 0
-318 340 289 343 292 346 0
-318 340 289 343 319 346 0
-318 340 289 292 319 346 0
-318 340 343 292 319 346 0
-318 289 343 292 319 346 0
-319 -320 0
-319 -321 0
-320 -321 0
-319 -290 -317 -344 0
-319 -290 -317 -293 0
-319 -290 -317 -347 0
-319 -290 -317 -296 0
-319 -290 -317 -323 0
-319 -290 -317 -350 0
-319 -290 -344 -293 0
-319 -290 -344 -347 0
-319 -290 -344 -296 0
-319 -290 -344 -323 0
-319 -290 -344 -350 0
-319 -290 -293 -347 0
-319 -290 -293 -296 0
-319 -290 -293 -323 0
-319 -290 -293 -350 0
-319 -290 -347 -296 0
-319 -290 -347 -323 0
-319 -290 -347 -350 0
-319 -290 -296 -323 0
-319 -290 -296 -350 0
-319 -290 -323 -350 0
-319 -317 -344 -293 0
-319 -317 -344 -347 0
-319 -317 -344 -296 0
-319 -317 -344 -323 0
-319 -317 -344 -350 0
-319 -317 -293 -347 0
-319 -317 -293 -296 0
-319 -317 -293 -323 0
-319 -317 -293 -350 0
-319 -317 -347 -296 0
-319 -317 -347 -323 0
-319 -317 -347 -350 0
-319 -317 -296 -323 0
-319 -317 -296 -350 0
-319 -317 -323 -350 0
-319 -344 -293 -347 0
-319 -344 -293 -296 0
-319 -344 -293 -323 0
-319 -344 -293 -350 0
-319 -344 -347 -296 0
-319 -344 -347 -323 0
-319 -344 -347 -350 0
-319 -344 -296 -323 0
-319 -344 -296 -350 0
-319 -344 -323 -350 0
-319 -293 -347 -296 0
-319 -293 -347 -323 0
-319 -293 -347 -350 0
-319 -293 -296 -323 0
-319 -293 -296 -350 0
-319 -293 -323 -350 0
-319 -347 -296 -323 0
-319 -347 -296 -350 0
-319 -347 -323 -350 0
-319 -296 -323 -350 0
-319 290 317 344 293 347 296 323 0
-319 290 317 344 293 347 296 350 0
-319 290 317 344 293 347 323 350 0
-319 290 317 344 293 296 323 350 0
-319 290 317 344 347 296 323 350 0
-319 290 317 293 347 296 323 350 0
-319 290 344 293 347 296 323 350 0
-319 317 344 293 347 296 323 350 0
-320 -291 -318 -345 -294 0
-320 -291 -318 -345 -348 0
-320 -291 -318 -345 -297 0
-320 -291 -318 -345 -324 0
-320 -291 -318 -345 -351 0
-320 -291 -318 -294 -348 0
-320 -291 -318 -294 -297 0
-320 -291 -318 -294 -324 0
-320 -291 -318 -294 -351 0
-320 -291 -318 -348 -297 0
-320 -291 -318 -348 -324 0
-320 -291 -318 -348 -351 0
-320 -291 -318 -297 -324 0
-320 -291 -318 -297 -351 0
-320 -291 -318 -324 -351 0
-320 -291 -345 -294 -348 0
-320 -291 -345 -294 -297 0
-320 -291 -345 -294 -324 0
-320 -291 -345 -294 -351 0
-320 -291 -345 -348 -297 0
-320 -291 -345 -348 -324 0
-320 -291 -345 -348 -351 0
-320 -291 -345 -297 -324 0
-320 -291 -345 -297 -351 0
-320 -291 -345 -324 -351 0
-320 -291 -294 -348 -297 0
-320 -291 -294 -348 -324 0
-320 -291 -294 -348 -351 0
-320 -291 -294 -297 -324 0
-320 -291 -294 -297 -351 0
-320 -291 -294 -324 -351 0
-320 -291 -348 -297 -324 0
-320 -291 -348 -297 -351 0
-320 -291 -348 -324 -351 0
-320 -291 -297 -324 -351 0
-320 -318 -345 -294 -348 0
-320 -318 -345 -294 -297 0
-320 -318 -345 -294 -324 0
-320 -318 -345 -294 -351 0
-320 -318 -345 -348 -297 0
-320 -318 -345 -348 -324 0
-320 -318 -345 -348 -351 0
-320 -318 -345 -297 -324 0
-320 -318 -345 -297 -351 0
-320 -318 -345 -324 -351 0
-320 -318 -294 -348 -297 0
-320 -318 -294 -348 -324 0
-320 -318 -294 -348 -351 0
-320 -318 -294 -297 -324 0
-320 -318 -294 -297 -351 0
-320 -318 -294 -324 -351 0
-320 -318 -348 -297 -324 0
-320 -318 -348 -297 -351 0
-320 -318 -348 -324 -351 0
-320 -318 -297 -324 -351 0
-320 -345 -294 -348 -297 0
-320 -345 -294 -348 -324 0
-320 -345 -294 -348 -351 0
-320 -345 -294 -297 -324 0
-320 -345 -294 -297 -351 0
-320 -345 -294 -324 -351 0
-320 -345 -348 -297 -324 0
-320 -345 -348 -297 -351 0
-320 -345 -348 -324 -351 0
-320 -345 -297 -324 -351 0
-320 -294 -348 -297 -324 0
-320 -294 -348 -297 -351 0
-320 -294 -348 -324 -351 0
-320 -294 -297 -324 -351 0
-320 -348 -297 -324 -351 0
-320 291 318 345 294 348 297 0
-320 291 318 345 294 348 324 0
-320 291 318 345 294 348 351 0
-320 291 318 345 294 297 324 0
-320 291 318 345 294 297 351 0
-320 291 318 345 294 324 351 0
-320 291 318 345 348 297 324 0
-320 291 318 345 348 297 351 0
-320 291 318 345 348 324 351 0
-320 291 318 345 297 324 351 0
-320 291 318 294 348 297 324 0
-320 291 318 294 348 297 351 0
-320 291 318 294 348 324 351 0
-320 291 318 294 297 324 351 0
-320 291 318 348 297 324 351 0
-320 291 345 294 348 297 324 0
-320 291 345 294 348 297 351 0
-320 291 345 294 348 324 351 0
-320 291 345 294 297 324 351 0
-320 291 345 348 297 324 351 0
-320 291 294 348 297 324 351 0
-320 318 345 294 348 297 324 0
-320 318 345 294 348 297 351 0
-320 318 345 294 348 324 351 0
-320 318 345 294 297 324 351 0
-320 318 345 348 297 324 351 0
-320 318 294 348 297 324 351 0
-320 345 294 348 297 324 351 0
-321 -289 -316 -343 -292 -346 0
-321 -289 -316 -343 -292 -295 0
-321 -289 -316 -343 -292 -322 0
-321 -289 -316 -343 -292 -349 0
-321 -289 -316 -343 -346 -295 0
-321 -289 -316 -343 -346 -322 0
-321 -289 -316 -343 -346 -349 0
-321 -289 -316 -343 -295 -322 0
-321 -289 -316 -343 -295 -349 0
-321 -289 -316 -343 -322 -349 0
-321 -289 -316 -292 -346 -295 0
-321 -289 -316 -292 -346 -322 0
-321 -289 -316 -292 -346 -349 0
-321 -289 -316 -292 -295 -322 0
-321 -289 -316 -292 -295 -349 0
-321 -289 -316 -292 -322 -349 0
-321 -289 -316 -346 -295 -322 0
-321 -289 -316 -346 -295 -349 0
-321 -289 -316 -346 -322 -349 0
-321 -289 -316 -295 -322 -349 0
-321 -289 -343 -292 -346 -295 0
-321 -289 -343 -292 -346 -322 0
-321 -289 -343 -292 -346 -349 0
-321 -289 -343 -292 -295 -322 0
-321 -289 -343 -292 -295 -349 0
-321 -289 -343 -292 -322 -349 0
-321 -289 -343 -346 -295 -322 0
-321 -289 -343 -346 -295 -349 0
-321 -289 -343 -346 -322 -349 0
-321 -289 -343 -295 -322 -349 0
-321 -289 -292 -346 -295 -322 0
-321 -289 -292 -346 -295 -349 0
-321 -289 -292 -346 -322 -349 0
-321 -289 -292 -295 -322 -349 0
-321 -289 -346 -295 -322 -349 0
-321 -316 -343 -292 -346 -295 0
-321 -316 -343 -292 -346 -322 0
-321 -316 -343 -292 -346 -349 0
-321 -316 -343 -292 -295 -322 0
-321 -316 -343 -292 -295 -349 0
-321 -316 -343 -292 -322 -349 0
-321 -316 -343 -346 -295 -322 0
-321 -316 -343 -346 -295 -349 0
-321 -316 -343 -346 -322 -349 0
-321 -316 -343 -295 -322 -349 0
-321 -316 -292 -346 -295 -322 0
-321 -316 -292 -346 -295 -349 0
-321 -316 -292 -346 -322 -349 0
-321 -316 -292 -295 -322 -349 0
-321 -316 -346 -295 -322 -349 0
-321 -343 -292 -346 -295 -322 0
-321 -343 -292 -346 -295 -349 0
-321 -343 -292 -346 -322 -349 0
-321 -343 -292 -295 -322 -349 0
-321 -343 -346 -295 -322 -349 0
-321 -292 -346 -295 -322 -349 0
-321 289 316 343 292 346 0
-321 289 316 343 292 295 0
-321 289 316 343 292 322 0
-321 289 316 343 292 349 0
-321 289 316 343 346 295 0
-321 289 316 343 346 322 0
-321 289 316 343 346 349 0
-321 289 316 343 295 322 0
-321 289 316 343 295 349 0
-321 289 316 343 322 349 0
-321 289 316 292 346 295 0
-321 289 316 292 346 322 0
-321 289 316 292 346 349 0
-321 289 316 292 295 322 0
-321 289 316 292 295 349 0
-321 289 316 292 322 349 0
-321 289 316 346 295 322 0
-321 289 316 346 295 349 0
-321 289 316 346 322 349 0
-321 289 316 295 322 349 0
-321 289 343 292 346 295 0
-321 289 343 292 346 322 0
-321 289 343 292 346 349 0
-321 289 343 292 295 322 0
-321 289 343 292 295 349 0
-321 289 343 292 322 349 0
-321 289 343 346 295 322 0
-321 289 343 346 295 349 0
-321 289 343 346 322 349 0
-321 289 343 295 322 349 0
-321 289 292 346 295 322 0
-321 289 292 346 295 349 0
-321 289 292 346 322 349 0
-321 289 292 295 322 349 0
-321 289 346 295 322 349 0
-321 316 343 292 346 295 0
-321 316 343 292 346 322 0
-321 316 343 292 346 349 0
-321 316 343 292 295 322 0
-321 316 343 292 295 349 0
-321 316 343 292 322 349 0
-321 316 343 346 295 322 0
-321 316 343 346 295 349 0
-321 316 343 346 322 349 0
-321 316 343 295 322 349 0
-321 316 292 346 295 322 0
-321 316 292 346 295 349 0
-321 316 292 346 322 349 0
-321 316 292 295 322 349 0
-321 316 346 295 322 349 0
-321 343 292 346 295 322 0
-321 343 292 346 295 349 0
-321 343 292 346 322 349 0
-321 343 292 295 322 349 0
-321 343 346 295 322 349 0
-321 292 346 295 322 349 0
-322 -323 0
-322 -324 0
-323 -324 0
-322 -293 -320 -347 0
-322 -293 -320 -296 0
-322 -293 -320 -350 0
-322 -293 -320 -299 0
-322 -293 -320 -326 0
-322 -293 -347 -296 0
-322 -293 -347 -350 0
-322 -293 -347 -299 0
-322 -293 -347 -326 0
-322 -293 -296 -350 0
-322 -293 -296 -299 0
-322 -293 -296 -326 0
-322 -293 -350 -299 0
-322 -293 -350 -326 0
-322 -293 -299 -326 0
-322 -320 -347 -296 0
-322 -320 -347 -350 0
-322 -320 -347 -299 0
-322 -320 -347 -326 0
-322 -320 -296 -350 0
-322 -320 -296 -299 0
-322 -320 -296 -326 0
-322 -320 -350 -299 0
-322 -320 -350 -326 0
-322 -320 -299 -326 0
-322 -347 -296 -350 0
-322 -347 -296 -299 0
-322 -347 -296 -326 0
-322 -347 -350 -299 0
-322 -347 -350 -326 0
-322 -347 -299 -326 0
-322 -296 -350 -299 0
-322 -296 -350 -326 0
-322 -296 -299 -326 0
-322 -350 -299 -326 0
-322 293 320 347 296 350 299 0
-322 293 320 347 296 350 326 0
-322 293 320 347 296 299 326 0
-322 293 320 347 350 299 326 0
-322 293 320 296 350 299 326 0
-322 293 347 296 350 299 326 0
-322 320 347 296 350 299 326 0
-323 -294 -321 -348 -297 0
-323 -294 -321 -348 -351 0
-323 -294 -321 -348 -300 0
-323 -294 -321 -348 -327 0
-323 -294 -321 -297 -351 0
-323 -294 -321 -297 -300 0
-323 -294 -321 -297 -327 0
-323 -294 -321 -351 -300 0
-323 -294 -321 -351 -327 0
-323 -294 -321 -300 -327 0
-323 -294 -348 -297 -351 0
-323 -294 -348 -297 -300 0
-323 -294 -348 -297 -327 0
-323 -294 -348 -351 -300 0
-323 -294 -348 -351 -327 0
-323 -294 -348 -300 -327 0
-323 -294 -297 -351 -300 0
-323 -294 -297 -351 -327 0
-323 -294 -297 -300 -327 0
-323 -294 -351 -300 -327 0
-323 -321 -348 -297 -351 0
-323 -321 -348 -297 -300 0
-323 -321 -348 -297 -327 0
-323 -321 -348 -351 -300 0
-323 -321 -348 -351 -327 0
-323 -321 -348 -300 -327 0
-323 -321 -297 -351 -300 0
-323 -321 -297 -351 -327 0
-323 -321 -297 -300 -327 0
-323 -321 -351 -300 -327 0
-323 -348 -297 -351 -300 0
-323 -348 -297 -351 -327 0
-323 -348 -297 -300 -327 0
-323 -348 -351 -300 -327 0
-323 -297 -351 -300 -327 0
-323 294 321 348 297 351 0
-323 294 321 348 297 300 0
-323 294 321 348 297 327 0
-323 294 321 348 351 300 0
-323 294 321 348 351 327 0
-323 294 321 348 300 327 0
-323 294 321 297 351 300 0
-323 294 321 297 351 327 0
-323 294 321 297 300 327 0
-323 294 321 351 300 327 0
-323 294 348 297 351 300 0
-323 294 348 297 351 327 0
-323 294 348 297 300 327 0
-323 294 348 351 300 327 0
-323 294 297 351 300 327 0
-323 321 348 297 351 300 0
-323 321 348 297 351 327 0
-323 321 348 297 300 327 0
-323 321 348 351 300 327 0
-323 321 297 351 300 327 0
-323 348 297 351 300 327 0
-324 -292 -319 -346 -295 -349 0
-324 -292 -319 -346 -295 -298 0
-324 -292 -319 -346 -295 -325 0
-324 -292 -319 -346 -349 -298 0
-324 -292 -319 -346 -349 -325 0
-324 -292 -319 -346 -298 -325 0
-324 -292 -319 -295 -349 -298 0
-324 -292 -319 -295 -349 -325 0
-324 -292 -319 -295 -298 -325 0
-324 -292 -319 -349 -298 -325 0
-324 -292 -346 -295 -349 -298 0
-324 -292 -346 -295 -349 -325 0
-324 -292 -346 -295 -298 -325 0
-324 -292 -346 -349 -298 -325 0
-324 -292 -295 -349 -298 -325 0
-324 -319 -346 -295 -349 -298 0
-324 -319 -346 -295 -349 -325 0
-324 -319 -346 -295 -298 -325 0
-324 -319 -346 -349 -298 -325 0
-324 -319 -295 -349 -298 -325 0
-324 -346 -295 -349 -298 -325 0
-324 292 319 346 295 0
-324 292 319 346 349 0
-324 292 319 346 298 0
-324 292 319 346 325 0
-324 292 319 295 349 0
-324 292 319 295 298 0
-324 292 319 295 325 0
-324 292 319 349 298 0
-324 292 319 349 325 0
-324 292 319 298 325 0
-324 292 346 295 349 0
-324 292 346 295 298 0
-324 292 346 295 325 0
-324 292 346 349 298 0
-324 292 346 349 325 0
-324 292 346 298 325 0
-324 292 295 349 298 0
-324 292 295 349 325 0
-324 292 295 298 325 0
-324 292 349 298 325 0
-324 319 346 295 349 0
-324 319 346 295 298 0
-324 319 346 295 325 0
-324 319 346 349 298 0
-324 319 346 349 325 0
-324 319 346 298 325 0
-324 319 295 349 298 0
-324 319 295 349 325 0
-324 319 295 298 325 0
-324 319 349 298 325 0
-324 346 295 349 298 0
-324 346 295 349 325 0
-324 346 295 298 325 0
-324 346 349 298 325 0
-324 295 349 298 325 0
-325 -326 0
-325 -327 0
-326 -327 0
-325 -296 -323 -350 0
-325 -296 -323 -299 0
-325 -296 -350 -299 0
-325 -323 -350 -299 0
-325 296 323 350 0
-325 296 323 299 0
-325 296 350 299 0
-325 323 350 299 0
-326 -297 -324 -351 -300 0
-326 297 324 0
-326 297 351 0
-326 297 300 0
-326 324 351 0
-326 324 300 0
-326 351 300 0
-327 295 0
-327 322 0
-327 349 0
-327 298 0
-328 -329 0
-328 -330 0
-329 -330 0
-331 -332 0
-331 -333 0
-332 -333 0
-331 -302 -329 -353 0
-331 -302 -329 -305 0
-331 -302 -329 -356 0
-331 -302 -329 -308 0
-331 -302 -329 -335 0
-331 -302 -329 -359 0
-331 -302 -353 -305 0
-331 -302 -353 -356 0
-331 -302 -353 -308 0
-331 -302 -353 -335 0
-331 -302 -353 -359 0
-331 -302 -305 -356 0
-331 -302 -305 -308 0
-331 -302 -305 -335 0
-331 -302 -305 -359 0
-331 -302 -356 -308 0
-331 -302 -356 -335 0
-331 -302 -356 -359 0
-331 -302 -308 -335 0
-331 -302 -308 -359 0
-331 -302 -335 -359 0
-331 -329 -353 -305 0
-331 -329 -353 -356 0
-331 -329 -353 -308 0
-331 -329 -353 -335 0
-331 -329 -353 -359 0
-331 -329 -305 -356 0
-331 -329 -305 -308 0
-331 -329 -305 -335 0
-331 -329 -305 -359 0
-331 -329 -356 -308 0
-331 -329 -356 -335 0
-331 -329 -356 -359 0
-331 -329 -308 -335 0
-331 -329 -308 -359 0
-331 -329 -335 -359 0
-331 -353 -305 -356 0
-331 -353 -305 -308 0
-331 -353 -305 -335 0
-331 -353 -305 -359 0
-331 -353 -356 -308 0
-331 -353 -356 -335 0
-331 -353 -356 -359 0
-331 -353 -308 -335 0
-331 -353 -308 -359 0
-331 -353 -335 -359 0
-331 -305 -356 -308 0
-331 -305 -356 -335 0
-331 -305 -356 -359 0
-331 -305 -308 -335 0
-331 -305 -308 -359 0
-331 -305 -335 -359 0
-331 -356 -308 -335 0
-331 -356 -308 -359 0
-331 -356 -335 -359 0
-331 -308 -335 -359 0
-331 302 329 353 305 356 308 335 0
-331 302 329 353 305 356 308 359 0
-331 302 329 353 305 356 335 359 0
-331 302 329 353 305 308 335 359 0
-331 302 329 353 356 308 335 359 0
-331 302 329 305 356 308 335 359 0
-331 302 353 305 356 308 335 359 0
-331 329 353 305 356 308 335 359 0
-332 -303 -330 -354 -306 0
-332 -303 -330 -354 -357 0
-332 -303 -330 -354 -309 0
-332 -303 -330 -354 -336 0
-332 -303 -330 -354 -360 0
-332 -303 -330 -306 -357 0
-332 -303 -330 -306 -309 0
-332 -303 -330 -306 -336 0
-332 -303 -330 -306 -360 0
-332 -303 -330 -357 -309 0
-332 -303 -330 -357 -336 0
-332 -303 -330 -357 -360 0
-332 -303 -330 -309 -336 0
-332 -303 -330 -309 -360 0
-332 -303 -330 -336 -360 0
-332 -303 -354 -306 -357 0
-332 -303 -354 -306 -309 0
-332 -303 -354 -306 -336 0
-332 -303 -354 -306 -360 0
-332 -303 -354 -357 -309 0
-332 -303 -354 -357 -336 0
-332 -303 -354 -357 -360 0
-332 -303 -354 -309 -336 0
-332 -303 -354 -309 -360 0
-332 -303 -354 -336 -360 0
-332 -303 -306 -357 -309 0
-332 -303 -306 -357 -336 0
-332 -303 -306 -357 -360 0
-332 -303 -306 -309 -336 0
-332 -303 -306 -309 -360 0
-332 -303 -306 -336 -360 0
-332 -303 -357 -309 -336 0
-332 -303 -357 -309 -360 0
-332 -303 -357 -336 -360 0
-332 -303 -309 -336 -360 0
-332 -330 -354 -306 -357 0
-332 -330 -354 -306 -309 0
-332 -330 -354 -306 -336 0
-332 -330 -354 -306 -360 0
-332 -330 -354 -357 -309 0
-332 -330 -354 -357 -336 0
-332 -330 -354 -357 -360 0
-332 -330 -354 -309 -336 0
-332 -330 -354 -309 -360 0
-332 -330 -354 -336 -360 0
-332 -330 -306 -357 -309 0
-332 -330 -306 -357 -336 0
-332 -330 -306 -357 -360 0
-332 -330 -306 -309 -336 0
-332 -330 -306 -309 -360 0
-332 -330 -306 -336 -360 0
-332 -330 -357 -309 -336 0
-332 -330 -357 -309 -360 0
-332 -330 -357 -336 -360 0
-332 -330 -309 -336 -360 0
-332 -354 -306 -357 -309 0
-332 -354 -306 -357 -336 0
-332 -354 -306 -357 -360 0
-332 -354 -306 -309 -336 0
-332 -354 -306 -309 -360 0
-332 -354 -306 -336 -360 0
-332 -354 -357 -309 -336 0
-332 -354 -357 -309 -360 0
-332 -354 -357 -336 -360 0
-332 -354 -309 -336 -360 0
-332 -306 -357 -309 -336 0
-332 -306 -357 -309 -360 0
-332 -306 -357 -336 -360 0
-332 -306 -309 -336 -360 0
-332 -357 -309 -336 -360 0
-332 303 330 354 306 357 309 0
-332 303 330 354 306 357 336 0
-332 303 330 354 306 357 360 0
-332 303 330 354 306 309 336 0
-332 303 330 354 306 309 360 0
-332 303 330 354 306 336 360 0
-332 303 330 354 357 309 336 0
-332 303 330 354 357 309 360 0
-332 303 330 354 357 336 360 0
-332 303 330 354 309 336 360 0
-332 303 330 306 357 309 336 0
-332 303 330 306 357 309 360 0
-332 303 330 306 357 336 360 0
-332 303 330 306 309 336 360 0
-332 303 330 357 309 336 360 0
-332 303 354 306 357 309 336 0
-332 303 354 306 357 309 360 0
-332 303 354 306 357 336 360 0
-332 303 354 306 309 336 360 0
-332 303 354 357 309 336 360 0
-332 303 306 357 309 336 360 0
-332 330 354 306 357 309 336 0
-332 330 354 306 357 309 360 0
-332 330 354 306 357 336 360 0
-332 330 354 306 309 336 360 0
-332 330 354 357 309 336 360 0
-332 330 306 357 309 336 360 0
-332 354 306 357 309 336 360 0
-333 -301 -328 -352 -304 -355 0
-333 -301 -328 -352 -304 -307 0
-333 -301 -328 -352 -304 -334 0
-333 -301 -328 -352 -304 -358 0
-333 -301 -328 -352 -355 -307 0
-333 -301 -328 -352 -355 -334 0
-333 -301 -328 -352 -355 -358 0
-333 -301 -328 -352 -307 -334 0
-333 -301 -328 -352 -307 -358 0
-333 -301 -328 -352 -334 -358 0
-333 -301 -328 -304 -355 -307 0
-333 -301 -328 -304 -355 -334 0
-333 -301 -328 -304 -355 -358 0
-333 -301 -328 -304 -307 -334 0
-333 -301 -328 -304 -307 -358 0
-333 -301 -328 -304 -334 -358 0
-333 -301 -328 -355 -307 -334 0
-333 -301 -328 -355 -307 -358 0
-333 -301 -328 -355 -334 -358 0
-333 -301 -328 -307 -334 -358 0
-333 -301 -352 -304 -355 -307 0
-333 -301 -352 -304 -355 -334 0
-333 -301 -352 -304 -355 -358 0
-333 -301 -352 -304 -307 -334 0
-333 -301 -352 -304 -307 -358 0
-333 -301 -352 -304 -334 -358 0
-333 -301 -352 -355 -307 -334 0
-333 -301 -352 -355 -307 -358 0
-333 -301 -352 -355 -334 -358 0
-333 -301 -352 -307 -334 -358 0
-333 -301 -304 -355 -307 -334 0
-333 -301 -304 -355 -307 -358 0
-333 -301 -304 -355 -334 -358 0
-333 -301 -304 -307 -334 -358 0
-333 -301 -355 -307 -334 -358 0
-333 -328 -352 -304 -355 -307 0
-333 -328 -352 -304 -355 -334 0
-333 -328 -352 -304 -355 -358 0
-333 -328 -352 -304 -307 -334 0
-333 -328 -352 -304 -307 -358 0
-333 -328 -352 -304 -334 -358 0
-333 -328 -352 -355 -307 -334 0
-333 -328 -352 -355 -307 -358 0
-333 -328 -352 -355 -334 -358 0
-333 -328 -352 -307 -334 -358 0
-333 -328 -304 -355 -307 -334 0
-333 -328 -304 -355 -307 -358 0
-333 -328 -304 -355 -334 -358 0
-333 -328 -304 -307 -334 -358 0
-333 -328 -355 -307 -334 -358 0
-333 -352 -304 -355 -307 -334 0
-333 -352 -304 -355 -307 -358 0
-333 -352 -304 -355 -334 -358 0
-333 -352 -304 -307 -334 -358 0
-333 -352 -355 -307 -334 -358 0
-333 -304 -355 -307 -334 -358 0
-333 301 328 352 304 355 0
-333 301 328 352 304 307 0
-333 301 328 352 304 334 0
-333 301 328 352 304 358 0
-333 301 328 352 355 307 0
-333 301 328 352 355 334 0
-333 301 328 352 355 358 0
-333 301 328 352 307 334 0
-333 301 328 352 307 358 0
-333 301 328 352 334 358 0
-333 301 328 304 355 307 0
-333 301 328 304 355 334 0
-333 301 328 304 355 358 0
-333 301 328 304 307 334 0
-333 301 328 304 307 358 0
-333 301 328 304 334 358 0
-333 301 328 355 307 334 0
-333 301 328 355 307 358 0
-333 301 328 355 334 358 0
-333 301 328 307 334 358 0
-333 301 352 304 355 307 0
-333 301 352 304 355 334 0
-333 301 352 304 355 358 0
-333 301 352 304 307 334 0
-333 301 352 304 307 358 0
-333 301 352 304 334 358 0
-333 301 352 355 307 334 0
-333 301 352 355 307 358 0
-333 301 352 355 334 358 0
-333 301 352 307 334 358 0
-333 301 304 355 307 334 0
-333 301 304 355 307 358 0
-333 301 304 355 334 358 0
-333 301 304 307 334 358 0
-333 301 355 307 334 358 0
-333 328 352 304 355 307 0
-333 328 352 304 355 334 0
-333 328 352 304 355 358 0
-333 328 352 304 307 334 0
-333 328 352 304 307 358 0
-333 328 352 304 334 358 0
-333 328 352 355 307 334 0
-333 328 352 355 307 358 0
-333 328 352 355 334 358 0
-333 328 352 307 334 358 0
-333 328 304 355 307 334 0
-333 328 304 355 307 358 0
-333 328 304 355 334 358 0
-333 328 304 307 334 358 0
-333 328 355 307 334 358 0
-333 352 304 355 307 334 0
-333 352 304 355 307 358 0
-333 352 304 355 334 358 0
-333 352 304 307 334 358 0
-333 352 355 307 334 358 0
-333 304 355 307 334 358 0
-334 -335 0
-334 -336 0
-335 -336 0
-334 -305 -332 -356 0
-334 -305 -332 -308 0
-334 -305 -332 -359 0
-334 -305 -332 -311 0
-334 -305 -332 -338 0
-334 -305 -332 -362 0
-334 -305 -356 -308 0
-334 -305 -356 -359 0
-334 -305 -356 -311 0
-334 -305 -356 -338 0
-334 -305 -356 -362 0
-334 -305 -308 -359 0
-334 -305 -308 -311 0
-334 -305 -308 -338 0
-334 -305 -308 -362 0
-334 -305 -359 -311 0
-334 -305 -359 -338 0
-334 -305 -359 -362 0
-334 -305 -311 -338 0
-334 -305 -311 -362 0
-334 -305 -338 -362 0
-334 -332 -356 -308 0
-334 -332 -356 -359 0
-334 -332 -356 -311 0
-334 -332 -356 -338 0
-334 -332 -356 -362 0
-334 -332 -308 -359 0
-334 -332 -308 -311 0
-334 -332 -308 -338 0
-334 -332 -308 -362 0
-334 -332 -359 -311 0
-334 -332 -359 -338 0
-334 -332 -359 -362 0
-334 -332 -311 -338 0
-334 -332 -311 -362 0
-334 -332 -338 -362 0
-334 -356 -308 -359 0
-334 -356 -308 -311 0
-334 -356 -308 -338 0
-334 -356 -308 -362 0
-334 -356 -359 -311 0
-334 -356 -359 -338 0
-334 -356 -359 -362 0
-334 -356 -311 -338 0
-334 -356 -311 -362 0
-334 -356 -338 -362 0
-334 -308 -359 -311 0
-334 -308 -359 -338 0
-334 -308 -359 -362 0
-334 -308 -311 -338 0
-334 -308 -311 -362 0
-334 -308 -338 -362 0
-334 -359 -311 -338 0
-334 -359 -311 -362 0
-334 -359 -338 -362 0
-334 -311 -338 -362 0
-334 305 332 356 308 359 311 338 0
-334 305 332 356 308 359 311 362 0
-334 305 332 356 308 359 338 362 0
-334 305 332 356 308 311 338 362 0
-334 305 332 356 359 311 338 362 0
-334 305 332 308 359 311 338 362 0
-334 305 356 308 359 311 338 362 0
-334 332 356 308 359 311 338 362 0
-335 -306 -333 -357 -309 0
-335 -306 -333 -357 -360 0
-335 -306 -333 -357 -312 0
-335 -306 -333 -357 -339 0
-335 -306 -333 -357 -363 0
-335 -306 -333 -309 -360 0
-335 -306 -333 -309 -312 0
-335 -306 -333 -309 -339 0
-335 -306 -333 -309 -363 0
-335 -306 -333 -360 -312 0
-335 -306 -333 -360 -339 0
-335 -306 -333 -360 -363 0
-335 -306 -333 -312 -339 0
-335 -306 -333 -312 -363 0
-335 -306 -333 -339 -363 0
-335 -306 -357 -309 -360 0
-335 -306 -357 -309 -312 0
-335 -306 -357 -309 -339 0
-335 -306 -357 -309 -363 0
-335 -306 -357 -360 -312 0
-335 -306 -357 -360 -339 0
-335 -306 -357 -360 -363 0
-335 -306 -357 -312 -339 0
-335 -306 -357 -312 -363 0
-335 -306 -357 -339 -363 0
-335 -306 -309 -360 -312 0
-335 -306 -309 -360 -339 0
-335 -306 -309 -360 -363 0
-335 -306 -309 -312 -339 0
-335 -306 -309 -312 -363 0
-335 -306 -309 -339 -363 0
-335 -306 -360 -312 -339 0
-335 -306 -360 -312 -363 0
-335 -306 -360 -339 -363 0
-335 -306 -312 -339 -363 0
-335 -333 -357 -309 -360 0
-335 -333 -357 -309 -312 0
-335 -333 -357 -309 -339 0
-335 -333 -357 -309 -363 0
-335 -333 -357 -360 -312 0
-335 -333 -357 -360 -339 0
-335 -333 -357 -360 -363 0
-335 -333 -357 -312 -339 0
-335 -333 -357 -312 -363 0
-335 -333 -357 -339 -363 0
-335 -333 -309 -360 -312 0
-335 -333 -309 -360 -339 0
-335 -333 -309 -360 -363 0
-335 -333 -309 -312 -339 0
-335 -333 -309 -312 -363 0
-335 -333 -309 -339 -363 0
-335 -333 -360 -312 -339 0
-335 -333 -360 -312 -363 0
-335 -333 -360 -339 -363 0
-335 -333 -312 -339 -363 0
-335 -357 -309 -360 -312 0
-335 -357 -309 -360 -339 0
-335 -357 -309 -360 -363 0
-335 -357 -309 -312 -339 0
-335 -357 -309 -312 -363 0
-335 -357 -309 -339 -363 0
-335 -357 -360 -312 -339 0
-335 -357 -360 -312 -363 0
-335 -357 -360 -339 -363 0
-335 -357 -312 -339 -363 0
-335 -309 -360 -312 -339 0
-335 -309 -360 -312 -363 0
-335 -309 -360 -339 -363 0
-335 -309 -312 -339 -363 0
-335 -360 -312 -339 -363 0
-335 306 333 357 309 360 312 0
-335 306 333 357 309 360 339 0
-335 306 333 357 309 360 363 0
-335 306 333 357 309 312 339 0
-335 306 333 357 309 312 363 0
-335 306 333 357 309 339 363 0
-335 306 333 357 360 312 339 0
-335 306 333 357 360 312 363 0
-335 306 333 357 360 339 363 0
-335 306 333 357 312 339 363 0
-335 306 333 309 360 312 339 0
-335 306 333 309 360 312 363 0
-335 306 333 309 360 339 363 0
-335 306 333 309 312 339 363 0
-335 306 333 360 312 339 363 0
-335 306 357 309 360 312 339 0
-335 306 357 309 360 312 363 0
-335 306 357 309 360 339 363 0
-335 306 357 309 312 339 363 0
-335 306 357 360 312 339 363 0
-335 306 309 360 312 339 363 0
-335 333 357 309 360 312 339 0
-335 333 357 309 360 312 363 0
-335 333 357 309 360 339 363 0
-335 333 357 309 312 339 363 0
-335 333 357 360 312 339 363 0
-335 333 309 360 312 339 363 0
-335 357 309 360 312 339 363 0
-336 -304 -331 -355 -307 -358 0
-336 -304 -331 -355 -307 -310 0
-336 -304 -331 -355 -307 -337 0
-336 -304 -331 -355 -307 -361 0
-336 -304 -331 -355 -358 -310 0
-336 -304 -331 -355 -358 -337 0
-336 -304 -331 -355 -358 -361 0
-336 -304 -331 -355 -310 -337 0
-336 -304 -331 -355 -310 -361 0
-336 -304 -331 -355 -337 -361 0
-336 -304 -331 -307 -358 -310 0
-336 -304 -331 -307 -358 -337 0
-336 -304 -331 -307 -358 -361 0
-336 -304 -331 -307 -310 -337 0
-336 -304 -331 -307 -310 -361 0
-336 -304 -331 -307 -337 -361 0
-336 -304 -331 -358 -310 -337 0
-336 -304 -331 -358 -310 -361 0
-336 -304 -331 -358 -337 -361 0
-336 -304 -331 -310 -337 -361 0
-336 -304 -355 -307 -358 -310 0
-336 -304 -355 -307 -358 -337 0
-336 -304 -355 -307 -358 -361 0
-336 -304 -355 -307 -310 -337 0
-336 -304 -355 -307 -310 -361 0
-336 -304 -355 -307 -337 -361 0
-336 -304 -355 -358 -310 -337 0
-336 -304 -355 -358 -310 -361 0
-336 -304 -355 -358 -337 -361 0
-336 -304 -355 -310 -337 -361 0
-336 -304 -307 -358 -310 -337 0
-336 -304 -307 -358 -310 -361 0
-336 -304 -307 -358 -337 -361 0
-336 -304 -307 -310 -337 -361 0
-336 -304 -358 -310 -337 -361 0
-336 -331 -355 -307 -358 -310 0
-336 -331 -355 -307 -358 -337 0
-336 -331 -355 -307 -358 -361 0
-336 -331 -355 -307 -310 -337 0
-336 -331 -355 -307 -310 -361 0
-336 -331 -355 -307 -337 -361 0
-336 -331 -355 -358 -310 -337 0
-336 -331 -355 -358 -310 -361 0
-336 -331 -355 -358 -337 -361 0
-336 -331 -355 -310 -337 -361 0
-336 -331 -307 -358 -310 -337 0
-336 -331 -307 -358 -310 -361 0
-336 -331 -307 -358 -337 -361 0
-336 -331 -307 -310 -337 -361 0
-336 -331 -358 -310 -337 -361 0
-336 -355 -307 -358 -310 -337 0
-336 -355 -307 -358 -310 -361 0
-336 -355 -307 -358 -337 -361 0
-336 -355 -307 -310 -337 -361 0
-336 -355 -358 -310 -337 -361 0
-336 -307 -358 -310 -337 -361 0
-336 304 331 355 307 358 0
-336 304 331 355 307 310 0
-336 304 331 355 307 337 0
-336 304 331 355 307 361 0
-336 304 331 355 358 310 0
-336 304 331 355 358 337 0
-336 304 331 355 358 361 0
-336 304 331 355 310 337 0
-336 304 331 355 310 361 0
-336 304 331 355 337 361 0
-336 304 331 307 358 310 0
-336 304 331 307 358 337 0
-336 304 331 307 358 361 0
-336 304 331 307 310 337 0
-336 304 331 307 310 361 0
-336 304 331 307 337 361 0
-336 304 331 358 310 337 0
-336 304 331 358 310 361 0
-336 304 331 358 337 361 0
-336 304 331 310 337 361 0
-336 304 355 307 358 310 0
-336 304 355 307 358 337 0
-336 304 355 307 358 361 0
-336 304 355 307 310 337 0
-336 304 355 307 310 361 0
-336 304 355 307 337 361 0
-336 304 355 358 310 337 0
-336 304 355 358 310 361 0
-336 304 355 358 337 361 0
-336 304 355 310 337 361 0
-336 304 307 358 310 337 0
-336 304 307 358 310 361 0
-336 304 307 358 337 361 0
-336 304 307 310 337 361 0
-336 304 358 310 337 361 0
-336 331 355 307 358 310 0
-336 331 355 307 358 337 0
-336 331 355 307 358 361 0
-336 331 355 307 310 337 0
-336 331 355 307 310 361 0
-336 331 355 307 337 361 0
-336 331 355 358 310 337 0
-336 331 355 358 310 361 0
-336 331 355 358 337 361 0
-336 331 355 310 337 361 0
-336 331 307 358 310 337 0
-336 331 307 358 310 361 0
-336 331 307 358 337 361 0
-336 331 307 310 337 361 0
-336 331 358 310 337 361 0
-336 355 307 358 310 337 0
-336 355 307 358 310 361 0
-336 355 307 358 337 361 0
-336 355 307 310 337 361 0
-336 355 358 310 337 361 0
-336 307 358 310 337 361 0
-337 -338 0
-337 -339 0
-338 -339 0
-337 -308 -335 -359 0
-337 -308 -335 -311 0
-337 -308 -335 -362 0
-337 -308 -335 -314 0
-337 -308 -335 -341 0
-337 -308 -335 -365 0
-337 -308 -359 -311 0
-337 -308 -359 -362 0
-337 -308 -359 -314 0
-337 -308 -359 -341 0
-337 -308 -359 -365 0
-337 -308 -311 -362 0
-337 -308 -311 -314 0
-337 -308 -311 -341 0
-337 -308 -311 -365 0
-337 -308 -362 -314 0
-337 -308 -362 -341 0
-337 -308 -362 -365 0
-337 -308 -314 -341 0
-337 -308 -314 -365 0
-337 -308 -341 -365 0
-337 -335 -359 -311 0
-337 -335 -359 -362 0
-337 -335 -359 -314 0
-337 -335 -359 -341 0
-337 -335 -359 -365 0
-337 -335 -311 -362 0
-337 -335 -311 -314 0
-337 -335 -311 -341 0
-337 -335 -311 -365 0
-337 -335 -362 -314 0
-337 -335 -362 -341 0
-337 -335 -362 -365 0
-337 -335 -314 -341 0
-337 -335 -314 -365 0
-337 -335 -341 -365 0
-337 -359 -311 -362 0
-337 -359 -311 -314 0
-337 -359 -311 -341 0
-337 -359 -311 -365 0
-337 -359 -362 -314 0
-337 -359 -362 -341 0
-337 -359 -362 -365 0
-337 -359 -314 -341 0
-337 -359 -314 -365 0
-337 -359 -341 -365 0
-337 -311 -362 -314 0
-337 -311 -362 -341 0
-337 -311 -362 -365 0
-337 -311 -314 -341 0
-337 -311 -314 -365 0
-337 -311 -341 -365 0
-337 -362 -314 -341 0
-337 -362 -314 -365 0
-337 -362 -341 -365 0
-337 -314 -341 -365 0
-337 308 335 359 311 362 314 341 0
-337 308 335 359 311 362 314 365 0
-337 308 335 359 311 362 341 365 0
-337 308 335 359 311 314 341 365 0
-337 308 335 359 362 314 341 365 0
-337 308 335 311 362 314 341 365 0
-337 308 359 311 362 314 341 365 0
-337 335 359 311 362 314 341 365 0
-338 -309 -336 -360 -312 0
-338 -309 -336 -360 -363 0
-338 -309 -336 -360 -315 0
-338 -309 -336 -360 -342 0
-338 -309 -336 -360 -366 0
-338 -309 -336 -312 -363 0
-338 -309 -336 -312 -315 0
-338 -309 -336 -312 -342 0
-338 -309 -336 -312 -366 0
-338 -309 -336 -363 -315 0
-338 -309 -336 -363 -342 0
-338 -309 -336 -363 -366 0
-338 -309 -336 -315 -342 0
-338 -309 -336 -315 -366 0
-338 -309 -336 -342 -366 0
-338 -309 -360 -312 -363 0
-338 -309 -360 -312 -315 0
-338 -309 -360 -312 -342 0
-338 -309 -360 -312 -366 0
-338 -309 -360 -363 -315 0
-338 -309 -360 -363 -342 0
-338 -309 -360 -363 -366 0
-338 -309 -360 -315 -342 0
-338 -309 -360 -315 -366 0
-338 -309 -360 -342 -366 0
-338 -309 -312 -363 -315 0
-338 -309 -312 -363 -342 0
-338 -309 -312 -363 -366 0
-338 -309 -312 -315 -342 0
-338 -309 -312 -315 -366 0
-338 -309 -312 -342 -366 0
-338 -309 -363 -315 -342 0
-338 -309 -363 -315 -366 0
-338 -309 -363 -342 -366 0
-338 -309 -315 -342 -366 0
-338 -336 -360 -312 -363 0
-338 -336 -360 -312 -315 0
-338 -336 -360 -312 -342 0
-338 -336 -360 -312 -366 0
-338 -336 -360 -363 -315 0
-338 -336 -360 -363 -342 0
-338 -336 -360 -363 -366 0
-338 -336 -360 -315 -342 0
-338 -336 -360 -315 -366 0
-338 -336 -360 -342 -366 0
-338 -336 -312 -363 -315 0
-338 -336 -312 -363 -342 0
-338 -336 -312 -363 -366 0
-338 -336 -312 -315 -342 0
-338 -336 -312 -315 -366 0
-338 -336 -312 -342 -366 0
-338 -336 -363 -315 -342 0
-338 -336 -363 -315 -366 0
-338 -336 -363 -342 -366 0
-338 -336 -315 -342 -366 0
-338 -360 -312 -363 -315 0
-338 -360 -312 -363 -342 0
-338 -360 -312 -363 -366 0
-338 -360 -312 -315 -342 0
-338 -360 -312 -315 -366 0
-338 -360 -312 -342 -366 0
-338 -360 -363 -315 -342 0
-338 -360 -363 -315 -366 0
-338 -360 -363 -342 -366 0
-338 -360 -315 -342 -366 0
-338 -312 -363 -315 -342 0
-338 -312 -363 -315 -366 0
-338 -312 -363 -342 -366 0
-338 -312 -315 -342 -366 0
-338 -363 -315 -342 -366 0
-338 309 336 360 312 363 315 0
-338 309 336 360 312 363 342 0
-338 309 336 360 312 363 366 0
-338 309 336 360 312 315 342 0
-338 309 336 360 312 315 366 0
-338 309 336 360 312 342 366 0
-338 309 336 360 363 315 342 0
-338 309 336 360 363 315 366 0
-338 309 336 360 363 342 366 0
-338 309 336 360 315 342 366 0
-338 309 336 312 363 315 342 0
-338 309 336 312 363 315 366 0
-338 309 336 312 363 342 366 0
-338 309 336 312 315 342 366 0
-338 309 336 363 315 342 366 0
-338 309 360 312 363 315 342 0
-338 309 360 312 363 315 366 0
-338 309 360 312 363 342 366 0
-338 309 360 312 315 342 366 0
-338 309 360 363 315 342 366 0
-338 309 312 363 315 342 366 0
-338 336 360 312 363 315 342 0
-338 336 360 312 363 315 366 0
-338 336 360 312 363 342 366 0
-338 336 360 312 315 342 366 0
-338 336 360 363 315 342 366 0
-338 336 312 363 315 342 366 0
-338 360 312 363 315 342 366 0
-339 -307 -334 -358 -310 -361 0
-339 -307 -334 -358 -310 -313 0
-339 -307 -334 -358 -310 -340 0
-339 -307 -334 -358 -310 -364 0
-339 -307 -334 -358 -361 -313 0
-339 -307 -334 -358 -361 -340 0
-339 -307 -334 -358 -361 -364 0
-339 -307 -334 -358 -313 -340 0
-339 -307 -334 -358 -313 -364 0
-339 -307 -334 -358 -340 -364 0
-339 -307 -334 -310 -361 -313 0
-339 -307 -334 -310 -361 -340 0
-339 -307 -334 -310 -361 -364 0
-339 -307 -334 -310 -313 -340 0
-339 -307 -334 -310 -313 -364 0
-339 -307 -334 -310 -340 -364 0
-339 -307 -334 -361 -313 -340 0
-339 -307 -334 -361 -313 -364 0
-339 -307 -334 -361 -340 -364 0
-339 -307 -334 -313 -340 -364 0
-339 -307 -358 -310 -361 -313 0
-339 -307 -358 -310 -361 -340 0
-339 -307 -358 -310 -361 -364 0
-339 -307 -358 -310 -313 -340 0
-339 -307 -358 -310 -313 -364 0
-339 -307 -358 -310 -340 -364 0
-339 -307 -358 -361 -313 -340 0
-339 -307 -358 -361 -313 -364 0
-339 -307 -358 -361 -340 -364 0
-339 -307 -358 -313 -340 -364 0
-339 -307 -310 -361 -313 -340 0
-339 -307 -310 -361 -313 -364 0
-339 -307 -310 -361 -340 -364 0
-339 -307 -310 -313 -340 -364 0
-339 -307 -361 -313 -340 -364 0
-339 -334 -358 -310 -361 -313 0
-339 -334 -358 -310 -361 -340 0
-339 -334 -358 -310 -361 -364 0
-339 -334 -358 -310 -313 -340 0
-339 -334 -358 -310 -313 -364 0
-339 -334 -358 -310 -340 -364 0
-339 -334 -358 -361 -313 -340 0
-339 -334 -358 -361 -313 -364 0
-339 -334 -358 -361 -340 -364 0
-339 -334 -358 -313 -340 -364 0
-339 -334 -310 -361 -313 -340 0
-339 -334 -310 -361 -313 -364 0
-339 -334 -310 -361 -340 -364 0
-339 -334 -310 -313 -340 -364 0
-339 -334 -361 -313 -340 -364 0
-339 -358 -310 -361 -313 -340 0
-339 -358 -310 -361 -313 -364 0
-339 -358 -310 -361 -340 -364 0
-339 -358 -310 -313 -340 -364 0
-339 -358 -361 -313 -340 -364 0
-339 -310 -361 -313 -340 -364 0
-339 307 334 358 310 361 0
-339 307 334 358 310 313 0
-339 307 334 358 310 340 0
-339 307 334 358 310 364 0
-339 307 334 358 361 313 0
-339 307 334 358 361 340 0
-339 307 334 358 361 364 0
-339 307 334 358 313 340 0
-339 307 334 358 313 364 0
-339 307 334 358 340 364 0
-339 307 334 310 361 313 0
-339 307 334 310 361 340 0
-339 307 334 310 361 364 0
-339 307 334 310 313 340 0
-339 307 334 310 313 364 0
-339 307 334 310 340 364 0
-339 307 334 361 313 340 0
-339 307 334 361 313 364 0
-339 307 334 361 340 364 0
-339 307 334 313 340 364 0
-339 307 358 310 361 313 0
-339 307 358 310 361 340 0
-339 307 358 310 361 364 0
-339 307 358 310 313 340 0
-339 307 358 310 313 364 0
-339 307 358 310 340 364 0
-339 307 358 361 313 340 0
-339 307 358 361 313 364 0
-339 307 358 361 340 364 0
-339 307 358 313 340 364 0
-339 307 310 361 313 340 0
-339 307 310 361 313 364 0
-339 307 310 361 340 364 0
-339 307 310 313 340 364 0
-339 307 361 313 340 364 0
-339 334 358 310 361 313 0
-339 334 358 310 361 340 0
-339 334 358 310 361 364 0
-339 334 358 310 313 340 0
-339 334 358 310 313 364 0
-339 334 358 310 340 364 0
-339 334 358 361 313 340 0
-339 334 358 361 313 364 0
-339 334 358 361 340 364 0
-339 334 358 313 340 364 0
-339 334 310 361 313 340 0
-339 334 310 361 313 364 0
-339 334 310 361 340 364 0
-339 334 310 313 340 364 0
-339 334 361 313 340 364 0
-339 358 310 361 313 340 0
-339 358 310 361 313 364 0
-339 358 310 361 340 364 0
-339 358 310 313 340 364 0
-339 358 361 313 340 364 0
-339 310 361 313 340 364 0
-340 -341 0
-340 -342 0
-341 -342 0
-340 -311 -338 -362 0
-340 -311 -338 -314 0
-340 -311 -338 -365 0
-340 -311 -338 -317 0
-340 -311 -338 -344 0
-340 -311 -338 -368 0
-340 -311 -362 -314 0
-340 -311 -362 -365 0
-340 -311 -362 -317 0
-340 -311 -362 -344 0
-340 -311 -362 -368 0
-340 -311 -314 -365 0
-340 -311 -314 -317 0
-340 -311 -314 -344 0
-340 -311 -314 -368 0
-340 -311 -365 -317 0
-340 -311 -365 -344 0
-340 -311 -365 -368 0
-340 -311 -317 -344 0
-340 -311 -317 -368 0
-340 -311 -344 -368 0
-340 -338 -362 -314 0
-340 -338 -362 -365 0
-340 -338 -362 -317 0
-340 -338 -362 -344 0
-340 -338 -362 -368 0
-340 -338 -314 -365 0
-340 -338 -314 -317 0
-340 -338 -314 -344 0
-340 -338 -314 -368 0
-340 -338 -365 -317 0
-340 -338 -365 -344 0
-340 -338 -365 -368 0
-340 -338 -317 -344 0
-340 -338 -317 -368 0
-340 -338 -344 -368 0
-340 -362 -314 -365 0
-340 -362 -314 -317 0
-340 -362 -314 -344 0
-340 -362 -314 -368 0
-340 -362 -365 -317 0
-340 -362 -365 -344 0
-340 -362 -365 -368 0
-340 -362 -317 -344 0
-340 -362 -317 -368 0
-340 -362 -344 -368 0
-340 -314 -365 -317 0
-340 -314 -365 -344 0
-340 -314 -365 -368 0
-340 -314 -317 -344 0
-340 -314 -317 -368 0
-340 -314 -344 -368 0
-340 -365 -317 -344 0
-340 -365 -317 -368 0
-340 -365 -344 -368 0
-340 -317 -344 -368 0
-340 311 338 362 314 365 317 344 0
-340 311 338 362 314 365 317 368 0
-340 311 338 362 314 365 344 368 0
-340 311 338 362 314 317 344 368 0
-340 311 338 362 365 317 344 368 0
-340 311 338 314 365 317 344 368 0
-340 311 362 314 365 317 344 368 0
-340 338 362 314 365 317 344 368 0
-341 -312 -339 -363 -315 0
-341 -312 -339 -363 -366 0
-341 -312 -339 -363 -318 0
-341 -312 -339 -363 -345 0
-341 -312 -339 -363 -369 0
-341 -312 -339 -315 -366 0
-341 -312 -339 -315 -318 0
-341 -312 -339 -315 -345 0
-341 -312 -339 -315 -369 0
-341 -312 -339 -366 -318 0
-341 -312 -339 -366 -345 0
-341 -312 -339 -366 -369 0
-341 -312 -339 -318 -345 0
-341 -312 -339 -318 -369 0
-341 -312 -339 -345 -369 0
-341 -312 -363 -315 -366 0
-341 -312 -363 -315 -318 0
-341 -312 -363 -315 -345 0
-341 -312 -363 -315 -369 0
-341 -312 -363 -366 -318 0
-341 -312 -363 -366 -345 0
-341 -312 -363 -366 -369 0
-341 -312 -363 -318 -345 0
-341 -312 -363 -318 -369 0
-341 -312 -363 -345 -369 0
-341 -312 -315 -366 -318 0
-341 -312 -315 -366 -345 0
-341 -312 -315 -366 -369 0
-341 -312 -315 -318 -345 0
-341 -312 -315 -318 -369 0
-341 -312 -315 -345 -369 0
-341 -312 -366 -318 -345 0
-341 -312 -366 -318 -369 0
-341 -312 -366 -345 -369 0
-341 -312 -318 -345 -369 0
-341 -339 -363 -315 -366 0
-341 -339 -363 -315 -318 0
-341 -339 -363 -315 -345 0
-341 -339 -363 -315 -369 0
-341 -339 -363 -366 -318 0
-341 -339 -363 -366 -345 0
-341 -339 -363 -366 -369 0
-341 -339 -363 -318 -345 0
-341 -339 -363 -318 -369 0
-341 -339 -363 -345 -369 0
-341 -339 -315 -366 -318 0
-341 -339 -315 -366 -345 0
-341 -339 -315 -366 -369 0
-341 -339 -315 -318 -345 0
-341 -339 -315 -318 -369 0
-341 -339 -315 -345 -369 0
-341 -339 -366 -318 -345 0
-341 -339 -366 -318 -369 0
-341 -339 -366 -345 -369 0
-341 -339 -318 -345 -369 0
-341 -363 -315 -366 -318 0
-341 -363 -315 -366 -345 0
-341 -363 -315 -366 -369 0
-341 -363 -315 -318 -345 0
-341 -363 -315 -318 -369 0
-341 -363 -315 -345 -369 0
-341 -363 -366 -318 -345 0
-341 -363 -366 -318 -369 0
-341 -363 -366 -345 -369 0
-341 -363 -318 -345 -369 0
-341 -315 -366 -318 -345 0
-341 -315 -366 -318 -369 0
-341 -315 -366 -345 -369 0
-341 -315 -318 -345 -369 0
-341 -366 -318 -345 -369 0
-341 312 339 363 315 366 318 0
-341 312 339 363 315 366 345 0
-341 312 339 363 315 366 369 0
-341 312 339 363 315 318 345 0
-341 312 339 363 315 318 369 0
-341 312 339 363 315 345 369 0
-341 312 339 363 366 318 345 0
-341 312 339 363 366 318 369 0
-341 312 339 363 366 345 369 0
-341 312 339 363 318 345 369 0
-341 312 339 315 366 318 345 0
-341 312 339 315 366 318 369 0
-341 312 339 315 366 345 369 0
-341 312 339 315 318 345 369 0
-341 312 339 366 318 345 369 0
-341 312 363 315 366 318 345 0
-341 312 363 315 366 318 369 0
-341 312 363 315 366 345 369 0
-341 312 363 315 318 345 369 0
-341 312 363 366 318 345 369 0
-341 312 315 366 318 345 369 0
-341 339 363 315 366 318 345 0
-341 339 363 315 366 318 369 0
-341 339 363 315 366 345 369 0
-341 339 363 315 318 345 369 0
-341 339 363 366 318 345 369 0
-341 339 315 366 318 345 369 0
-341 363 315 366 318 345 369 0
-342 -310 -337 -361 -313 -364 0
-342 -310 -337 -361 -313 -316 0
-342 -310 -337 -361 -313 -343 0
-342 -310 -337 -361 -313 -367 0
-342 -310 -337 -361 -364 -316 0
-342 -310 -337 -361 -364 -343 0
-342 -310 -337 -361 -364 -367 0
-342 -310 -337 -361 -316 -343 0
-342 -310 -337 -361 -316 -367 0
-342 -310 -337 -361 -343 -367 0
-342 -310 -337 -313 -364 -316 0
-342 -310 -337 -313 -364 -343 0
-342 -310 -337 -313 -364 -367 0
-342 -310 -337 -313 -316 -343 0
-342 -310 -337 -313 -316 -367 0
-342 -310 -337 -313 -343 -367 0
-342 -310 -337 -364 -316 -343 0
-342 -310 -337 -364 -316 -367 0
-342 -310 -337 -364 -343 -367 0
-342 -310 -337 -316 -343 -367 0
-342 -310 -361 -313 -364 -316 0
-342 -310 -361 -313 -364 -343 0
-342 -310 -361 -313 -364 -367 0
-342 -310 -361 -313 -316 -343 0
-342 -310 -361 -313 -316 -367 0
-342 -310 -361 -313 -343 -367 0
-342 -310 -361 -364 -316 -343 0
-342 -310 -361 -364 -316 -367 0
-342 -310 -361 -364 -343 -367 0
-342 -310 -361 -316 -343 -367 0
-342 -310 -313 -364 -316 -343 0
-342 -310 -313 -364 -316 -367 0
-342 -310 -313 -364 -343 -367 0
-342 -310 -313 -316 -343 -367 0
-342 -310 -364 -316 -343 -367 0
-342 -337 -361 -313 -364 -316 0
-342 -337 -361 -313 -364 -343 0
-342 -337 -361 -313 -364 -367 0
-342 -337 -361 -313 -316 -343 0
-342 -337 -361 -313 -316 -367 0
-342 -337 -361 -313 -343 -367 0
-342 -337 -361 -364 -316 -343 0
-342 -337 -361 -364 -316 -367 0
-342 -337 -361 -364 -343 -367 0
-342 -337 -361 -316 -343 -367 0
-342 -337 -313 -364 -316 -343 0
-342 -337 -313 -364 -316 -367 0
-342 -337 -313 -364 -343 -367 0
-342 -337 -313 -316 -343 -367 0
-342 -337 -364 -316 -343 -367 0
-342 -361 -313 -364 -316 -343 0
-342 -361 -313 -364 -316 -367 0
-342 -361 -313 -364 -343 -367 0
-342 -361 -313 -316 -343 -367 0
-342 -361 -364 -316 -343 -367 0
-342 -313 -364 -316 -343 -367 0
-342 310 337 361 313 364 0
-342 310 337 361 313 316 0
-342 310 337 361 313 343 0
-342 310 337 361 313 367 0
-342 310 337 361 364 316 0
-342 310 337 361 364 343 0
-342 310 337 361 364 367 0
-342 310 337 361 316 343 0
-342 310 337 361 316 367 0
-342 310 337 361 343 367 0
-342 310 337 313 364 316 0
-342 310 337 313 364 343 0
-342 310 337 313 364 367 0
-342 310 337 313 316 343 0
-342 310 337 313 316 367 0
-342 310 337 313 343 367 0
-342 310 337 364 316 343 0
-342 310 337 364 316 367 0
-342 310 337 364 343 367 0
-342 310 337 316 343 367 0
-342 310 361 313 364 316 0
-342 310 361 313 364 343 0
-342 310 361 313 364 367 0
-342 310 361 313 316 343 0
-342 310 361 313 316 367 0
-342 310 361 313 343 367 0
-342 310 361 364 316 343 0
-342 310 361 364 316 367 0
-342 310 361 364 343 367 0
-342 310 361 316 343 367 0
-342 310 313 364 316 343 0
-342 310 313 364 316 367 0
-342 310 313 364 343 367 0
-342 310 313 316 343 367 0
-342 310 364 316 343 367 0
-342 337 361 313 364 316 0
-342 337 361 313 364 343 0
-342 337 361 313 364 367 0
-342 337 361 313 316 343 0
-342 337 361 313 316 367 0
-342 337 361 313 343 367 0
-342 337 361 364 316 343 0
-342 337 361 364 316 367 0
-342 337 361 364 343 367 0
-342 337 361 316 343 367 0
-342 337 313 364 316 343 0
-342 337 313 364 316 367 0
-342 337 313 364 343 367 0
-342 337 313 316 343 367 0
-342 337 364 316 343 367 0
-342 361 313 364 316 343 0
-342 361 313 364 316 367 0
-342 361 313 364 343 367 0
-342 361 313 316 343 367 0
-342 361 364 316 343 367 0
-342 313 364 316 343 367 0
-343 -344 0
-343 -345 0
-344 -345 0
-343 -314 -341 -365 0
-343 -314 -341 -317 0
-343 -314 -341 -368 0
-343 -314 -341 -320 0
-343 -314 -341 -347 0
-343 -314 -341 -371 0
-343 -314 -365 -317 0
-343 -314 -365 -368 0
-343 -314 -365 -320 0
-343 -314 -365 -347 0
-343 -314 -365 -371 0
-343 -314 -317 -368 0
-343 -314 -317 -320 0
-343 -314 -317 -347 0
-343 -314 -317 -371 0
-343 -314 -368 -320 0
-343 -314 -368 -347 0
-343 -314 -368 -371 0
-343 -314 -320 -347 0
-343 -314 -320 -371 0
-343 -314 -347 -371 0
-343 -341 -365 -317 0
-343 -341 -365 -368 0
-343 -341 -365 -320 0
-343 -341 -365 -347 0
-343 -341 -365 -371 0
-343 -341 -317 -368 0
-343 -341 -317 -320 0
-343 -341 -317 -347 0
-343 -341 -317 -371 0
-343 -341 -368 -320 0
-343 -341 -368 -347 0
-343 -341 -368 -371 0
-343 -341 -320 -347 0
-343 -341 -320 -371 0
-343 -341 -347 -371 0
-343 -365 -317 -368 0
-343 -365 -317 -320 0
-343 -365 -317 -347 0
-343 -365 -317 -371 0
-343 -365 -368 -320 0
-343 -365 -368 -347 0
-343 -365 -368 -371 0
-343 -365 -320 -347 0
-343 -365 -320 -371 0
-343 -365 -347 -371 0
-343 -317 -368 -320 0
-343 -317 -368 -347 0
-343 -317 -368 -371 0
-343 -317 -320 -347 0
-343 -317 -320 -371 0
-343 -317 -347 -371 0
-343 -368 -320 -347 0
-343 -368 -320 -371 0
-343 -368 -347 -371 0
-343 -320 -347 -371 0
-343 314 341 365 317 368 320 347 0
-343 314 341 365 317 368 320 371 0
-343 314 341 365 317 368 347 371 0
-343 314 341 365 317 320 347 371 0
-343 314 341 365 368 320 347 371 0
-343 314 341 317 368 320 347 371 0
-343 314 365 317 368 320 347 371 0
-343 341 365 317 368 320 347 371 0
-344 -315 -342 -366 -318 0
-344 -315 -342 -366 -369 0
-344 -315 -342 -366 -321 0
-344 -315 -342 -366 -348 0
-344 -315 -342 -366 -372 0
-344 -315 -342 -318 -369 0
-344 -315 -342 -318 -321 0
-344 -315 -342 -318 -348 0
-344 -315 -342 -318 -372 0
-344 -315 -342 -369 -321 0
-344 -315 -342 -369 -348 0
-344 -315 -342 -369 -372 0
-344 -315 -342 -321 -348 0
-344 -315 -342 -321 -372 0
-344 -315 -342 -348 -372 0
-344 -315 -366 -318 -369 0
-344 -315 -366 -318 -321 0
-344 -315 -366 -318 -348 0
-344 -315 -366 -318 -372 0
-344 -315 -366 -369 -321 0
-344 -315 -366 -369 -348 0
-344 -315 -366 -369 -372 0
-344 -315 -366 -321 -348 0
-344 -315 -366 -321 -372 0
-344 -315 -366 -348 -372 0
-344 -315 -318 -369 -321 0
-344 -315 -318 -369 -348 0
-344 -315 -318 -369 -372 0
-344 -315 -318 -321 -348 0
-344 -315 -318 -321 -372 0
-344 -315 -318 -348 -372 0
-344 -315 -369 -321 -348 0
-344 -315 -369 -321 -372 0
-344 -315 -369 -348 -372 0
-344 -315 -321 -348 -372 0
-344 -342 -366 -318 -369 0
-344 -342 -366 -318 -321 0
-344 -342 -366 -318 -348 0
-344 -342 -366 -318 -372 0
-344 -342 -366 -369 -321 0
-344 -342 -366 -369 -348 0
-344 -342 -366 -369 -372 0
-344 -342 -366 -321 -348 0
-344 -342 -366 -321 -372 0
-344 -342 -366 -348 -372 0
-344 -342 -318 -369 -321 0
-344 -342 -318 -369 -348 0
-344 -342 -318 -369 -372 0
-344 -342 -318 -321 -348 0
-344 -342 -318 -321 -372 0
-344 -342 -318 -348 -372 0
-344 -342 -369 -321 -348 0
-344 -342 -369 -321 -372 0
-344 -342 -369 -348 -372 0
-344 -342 -321 -348 -372 0
-344 -366 -318 -369 -321 0
-344 -366 -318 -369 -348 0
-344 -366 -318 -369 -372 0
-344 -366 -318 -321 -348 0
-344 -366 -318 -321 -372 0
-344 -366 -318 -348 -372 0
-344 -366 -369 -321 -348 0
-344 -366 -369 -321 -372 0
-344 -366 -369 -348 -372 0
-344 -366 -321 -348 -372 0
-344 -318 -369 -321 -348 0
-344 -318 -369 -321 -372 0
-344 -318 -369 -348 -372 0
-344 -318 -321 -348 -372 0
-344 -369 -321 -348 -372 0
-344 315 342 366 318 369 321 0
-344 315 342 366 318 369 348 0
-344 315 342 366 318 369 372 0
-344 315 342 366 318 321 348 0
-344 315 342 366 318 321 372 0
-344 315 342 366 318 348 372 0
-344 315 342 366 369 321 348 0
-344 315 342 366 369 321 372 0
-344 315 342 366 369 348 372 0
-344 315 342 366 321 348 372 0
-344 315 342 318 369 321 348 0
-344 315 342 318 369 321 372 0
-344 315 342 318 369 348 372 0
-344 315 342 318 321 348 372 0
-344 315 342 369 321 348 372 0
-344 315 366 318 369 321 348 0
-344 315 366 318 369 321 372 0
-344 315 366 318 369 348 372 0
-344 315 366 318 321 348 372 0
-344 315 366 369 321 348 372 0
-344 315 318 369 321 348 372 0
-344 342 366 318 369 321 348 0
-344 342 366 318 369 321 372 0
-344 342 366 318 369 348 372 0
-344 342 366 318 321 348 372 0
-344 342 366 369 321 348 372 0
-344 342 318 369 321 348 372 0
-344 366 318 369 321 348 372 0
-345 -313 -340 -364 -316 -367 0
-345 -313 -340 -364 -316 -319 0
-345 -313 -340 -364 -316 -346 0
-345 -313 -340 -364 -316 -370 0
-345 -313 -340 -364 -367 -319 0
-345 -313 -340 -364 -367 -346 0
-345 -313 -340 -364 -367 -370 0
-345 -313 -340 -364 -319 -346 0
-345 -313 -340 -364 -319 -370 0
-345 -313 -340 -364 -346 -370 0
-345 -313 -340 -316 -367 -319 0
-345 -313 -340 -316 -367 -346 0
-345 -313 -340 -316 -367 -370 0
-345 -313 -340 -316 -319 -346 0
-345 -313 -340 -316 -319 -370 0
-345 -313 -340 -316 -346 -370 0
-345 -313 -340 -367 -319 -346 0
-345 -313 -340 -367 -319 -370 0
-345 -313 -340 -367 -346 -370 0
-345 -313 -340 -319 -346 -370 0
-345 -313 -364 -316 -367 -319 0
-345 -313 -364 -316 -367 -346 0
-345 -313 -364 -316 -367 -370 0
-345 -313 -364 -316 -319 -346 0
-345 -313 -364 -316 -319 -370 0
-345 -313 -364 -316 -346 -370 0
-345 -313 -364 -367 -319 -346 0
-345 -313 -364 -367 -319 -370 0
-345 -313 -364 -367 -346 -370 0
-345 -313 -364 -319 -346 -370 0
-345 -313 -316 -367 -319 -346 0
-345 -313 -316 -367 -319 -370 0
-345 -313 -316 -367 -346 -370 0
-345 -313 -316 -319 -346 -370 0
-345 -313 -367 -319 -346 -370 0
-345 -340 -364 -316 -367 -319 0
-345 -340 -364 -316 -367 -346 0
-345 -340 -364 -316 -367 -370 0
-345 -340 -364 -316 -319 -346 0
-345 -340 -364 -316 -319 -370 0
-345 -340 -364 -316 -346 -370 0
-345 -340 -364 -367 -319 -346 0
-345 -340 -364 -367 -319 -370 0
-345 -340 -364 -367 -346 -370 0
-345 -340 -364 -319 -346 -370 0
-345 -340 -316 -367 -319 -346 0
-345 -340 -316 -367 -319 -370 0
-345 -340 -316 -367 -346 -370 0
-345 -340 -316 -319 -346 -370 0
-345 -340 -367 -319 -346 -370 0
-345 -364 -316 -367 -319 -346 0
-345 -364 -316 -367 -319 -370 0
-345 -364 -316 -367 -346 -370 0
-345 -364 -316 -319 -346 -370 0
-345 -364 -367 -319 -346 -370 0
-345 -316 -367 -319 -346 -370 0
-345 313 340 364 316 367 0
-345 313 340 364 316 319 0
-345 313 340 364 316 346 0
-345 313 340 364 316 370 0
-345 313 340 364 367 319 0
-345 313 340 364 367 346 0
-345 313 340 364 367 370 0
-345 313 340 364 319 346 0
-345 313 340 364 319 370 0
-345 313 340 364 346 370 0
-345 313 340 316 367 319 0
-345 313 340 316 367 346 0
-345 313 340 316 367 370 0
-345 313 340 316 319 346 0
-345 313 340 316 319 370 0
-345 313 340 316 346 370 0
-345 313 340 367 319 346 0
-345 313 340 367 319 370 0
-345 313 340 367 346 370 0
-345 313 340 319 346 370 0
-345 313 364 316 367 319 0
-345 313 364 316 367 346 0
-345 313 364 316 367 370 0
-345 313 364 316 319 346 0
-345 313 364 316 319 370 0
-345 313 364 316 346 370 0
-345 313 364 367 319 346 0
-345 313 364 367 319 370 0
-345 313 364 367 346 370 0
-345 313 364 319 346 370 0
-345 313 316 367 319 346 0
-345 313 316 367 319 370 0
-345 313 316 367 346 370 0
-345 313 316 319 346 370 0
-345 313 367 319 346 370 0
-345 340 364 316 367 319 0
-345 340 364 316 367 346 0
-345 340 364 316 367 370 0
-345 340 364 316 319 346 0
-345 340 364 316 319 370 0
-345 340 364 316 346 370 0
-345 340 364 367 319 346 0
-345 340 364 367 319 370 0
-345 340 364 367 346 370 0
-345 340 364 319 346 370 0
-345 340 316 367 319 346 0
-345 340 316 367 319 370 0
-345 340 316 367 346 370 0
-345 340 316 319 346 370 0
-345 340 367 319 346 370 0
-345 364 316 367 319 346 0
-345 364 316 367 319 370 0
-345 364 316 367 346 370 0
-345 364 316 319 346 370 0
-345 364 367 319 346 370 0
-345 316 367 319 346 370 0
-346 -347 0
-346 -348 0
-347 -348 0
-346 -317 -344 -368 0
-346 -317 -344 -320 0
-346 -317 -344 -371 0
-346 -317 -344 -323 0
-346 -317 -344 -350 0
-346 -317 -368 -320 0
-346 -317 -368 -371 0
-346 -317 -368 -323 0
-346 -317 -368 -350 0
-346 -317 -320 -371 0
-346 -317 -320 -323 0
-346 -317 -320 -350 0
-346 -317 -371 -323 0
-346 -317 -371 -350 0
-346 -317 -323 -350 0
-346 -344 -368 -320 0
-346 -344 -368 -371 0
-346 -344 -368 -323 0
-346 -344 -368 -350 0
-346 -344 -320 -371 0
-346 -344 -320 -323 0
-346 -344 -320 -350 0
-346 -344 -371 -323 0
-346 -344 -371 -350 0
-346 -344 -323 -350 0
-346 -368 -320 -371 0
-346 -368 -320 -323 0
-346 -368 -320 -350 0
-346 -368 -371 -323 0
-346 -368 -371 -350 0
-346 -368 -323 -350 0
-346 -320 -371 -323 0
-346 -320 -371 -350 0
-346 -320 -323 -350 0
-346 -371 -323 -350 0
-346 317 344 368 320 371 323 0
-346 317 344 368 320 371 350 0
-346 317 344 368 320 323 350 0
-346 317 344 368 371 323 350 0
-346 317 344 320 371 323 350 0
-346 317 368 320 371 323 350 0
-346 344 368 320 371 323 350 0
-347 -318 -345 -369 -321 0
-347 -318 -345 -369 -372 0
-347 -318 -345 -369 -324 0
-347 -318 -345 -369 -351 0
-347 -318 -345 -321 -372 0
-347 -318 -345 -321 -324 0
-347 -318 -345 -321 -351 0
-347 -318 -345 -372 -324 0
-347 -318 -345 -372 -351 0
-347 -318 -345 -324 -351 0
-347 -318 -369 -321 -372 0
-347 -318 -369 -321 -324 0
-347 -318 -369 -321 -351 0
-347 -318 -369 -372 -324 0
-347 -318 -369 -372 -351 0
-347 -318 -369 -324 -351 0
-347 -318 -321 -372 -324 0
-347 -318 -321 -372 -351 0
-347 -318 -321 -324 -351 0
-347 -318 -372 -324 -351 0
-347 -345 -369 -321 -372 0
-347 -345 -369 -321 -324 0
-347 -345 -369 -321 -351 0
-347 -345 -369 -372 -324 0
-347 -345 -369 -372 -351 0
-347 -345 -369 -324 -351 0
-347 -345 -321 -372 -324 0
-347 -345 -321 -372 -351 0
-347 -345 -321 -324 -351 0
-347 -345 -372 -324 -351 0
-347 -369 -321 -372 -324 0
-347 -369 -321 -372 -351 0
-347 -369 -321 -324 -351 0
-347 -369 -372 -324 -351 0
-347 -321 -372 -324 -351 0
-347 318 345 369 321 372 0
-347 318 345 369 321 324 0
-347 318 345 369 321 351 0
-347 318 345 369 372 324 0
-347 318 345 369 372 351 0
-347 318 345 369 324 351 0
-347 318 345 321 372 324 0
-347 318 345 321 372 351 0
-347 318 345 321 324 351 0
-347 318 345 372 324 351 0
-347 318 369 321 372 324 0
-347 318 369 321 372 351 0
-347 318 369 321 324 351 0
-347 318 369 372 324 351 0
-347 318 321 372 324 351 0
-347 345 369 321 372 324 0
-347 345 369 321 372 351 0
-347 345 369 321 324 351 0
-347 345 369 372 324 351 0
-347 345 321 372 324 351 0
-347 369 321 372 324 351 0
-348 -316 -343 -367 -319 -370 0
-348 -316 -343 -367 -319 -322 0
-348 -316 -343 -367 -319 -349 0
-348 -316 -343 -367 -370 -322 0
-348 -316 -343 -367 -370 -349 0
-348 -316 -343 -367 -322 -349 0
-348 -316 -343 -319 -370 -322 0
-348 -316 -343 -319 -370 -349 0
-348 -316 -343 -319 -322 -349 0
-348 -316 -343 -370 -322 -349 0
-348 -316 -367 -319 -370 -322 0
-348 -316 -367 -319 -370 -349 0
-348 -316 -367 -319 -322 -349 0
-348 -316 -367 -370 -322 -349 0
-348 -316 -319 -370 -322 -349 0
-348 -343 -367 -319 -370 -322 0
-348 -343 -367 -319 -370 -349 0
-348 -343 -367 -319 -322 -349 0
-348 -343 -367 -370 -322 -349 0
-348 -343 -319 -370 -322 -349 0
-348 -367 -319 -370 -322 -349 0
-348 316 343 367 319 0
-348 316 343 367 370 0
-348 316 343 367 322 0
-348 316 343 367 349 0
-348 316 343 319 370 0
-348 316 343 319 322 0
-348 316 343 319 349 0
-348 316 343 370 322 0
-348 316 343 370 349 0
-348 316 343 322 349 0
-348 316 367 319 370 0
-348 316 367 319 322 0
-348 316 367 319 349 0
-348 316 367 370 322 0
-348 316 367 370 349 0
-348 316 367 322 349 0
-348 316 319 370 322 0
-348 316 319 370 349 0
-348 316 319 322 349 0
-348 316 370 322 349 0
-348 343 367 319 370 0
-348 343 367 319 322 0
-348 343 367 319 349 0
-348 343 367 370 322 0
-348 343 367 370 349 0
-348 343 367 322 349 0
-348 343 319 370 322 0
-348 343 319 370 349 0
-348 343 319 322 349 0
-348 343 370 322 349 0
-348 367 319 370 322 0
-348 367 319 370 349 0
-348 367 319 322 349 0
-348 367 370 322 349 0
-348 319 370 322 349 0
-349 -350 0
-349 -351 0
-350 -351 0
-349 -320 -347 -371 0
-349 -320 -347 -323 0
-349 -320 -347 -326 0
-349 -320 -371 -323 0
-349 -320 -371 -326 0
-349 -320 -323 -326 0
-349 -347 -371 -323 0
-349 -347 -371 -326 0
-349 -347 -323 -326 0
-349 -371 -323 -326 0
-349 320 347 371 323 0
-349 320 347 371 326 0
-349 320 347 323 326 0
-349 320 371 323 326 0
-349 347 371 323 326 0
-350 -321 -348 -372 -324 0
-350 -321 -348 -372 -327 0
-350 -321 -348 -324 -327 0
-350 -321 -372 -324 -327 0
-350 -348 -372 -324 -327 0
-350 321 348 372 0
-350 321 348 324 0
-350 321 348 327 0
-350 321 372 324 0
-350 321 372 327 0
-350 321 324 327 0
-350 348 372 324 0
-350 348 372 327 0
-350 348 324 327 0
-350 372 324 327 0
-351 -319 -346 -370 -322 -325 0
-351 319 346 0
-351 319 370 0
-351 319 322 0
-351 319 325 0
-351 346 370 0
-351 346 322 0
-351 346 325 0
-351 370 322 0
-351 370 325 0
-351 322 325 0
-352 -353 0
-352 -354 0
-353 -354 0
-355 -356 0
-355 -357 0
-356 -357 0
-355 -329 -353 -374 0
-355 -329 -353 -332 0
-355 -329 -353 -377 0
-355 -329 -353 -335 0
-355 -329 -353 -359 0
-355 -329 -353 -380 0
-355 -329 -374 -332 0
-355 -329 -374 -377 0
-355 -329 -374 -335 0
-355 -329 -374 -359 0
-355 -329 -374 -380 0
-355 -329 -332 -377 0
-355 -329 -332 -335 0
-355 -329 -332 -359 0
-355 -329 -332 -380 0
-355 -329 -377 -335 0
-355 -329 -377 -359 0
-355 -329 -377 -380 0
-355 -329 -335 -359 0
-355 -329 -335 -380 0
-355 -329 -359 -380 0
-355 -353 -374 -332 0
-355 -353 -374 -377 0
-355 -353 -374 -335 0
-355 -353 -374 -359 0
-355 -353 -374 -380 0
-355 -353 -332 -377 0
-355 -353 -332 -335 0
-355 -353 -332 -359 0
-355 -353 -332 -380 0
-355 -353 -377 -335 0
-355 -353 -377 -359 0
-355 -353 -377 -380 0
-355 -353 -335 -359 0
-355 -353 -335 -380 0
-355 -353 -359 -380 0
-355 -374 -332 -377 0
-355 -374 -332 -335 0
-355 -374 -332 -359 0
-355 -374 -332 -380 0
-355 -374 -377 -335 0
-355 -374 -377 -359 0
-355 -374 -377 -380 0
-355 -374 -335 -359 0
-355 -374 -335 -380 0
-355 -374 -359 -380 0
-355 -332 -377 -335 0
-355 -332 -377 -359 0
-355 -332 -377 -380 0
-355 -332 -335 -359 0
-355 -332 -335 -380 0
-355 -332 -359 -380 0
-355 -377 -335 -359 0
-355 -377 -335 -380 0
-355 -377 -359 -380 0
-355 -335 -359 -380 0
-355 329 353 374 332 377 335 359 0
-355 329 353 374 332 377 335 380 0
-355 329 353 374 332 377 359 380 0
-355 329 353 374 332 335 359 380 0
-355 329 353 374 377 335 359 380 0
-355 329 353 332 377 335 359 380 0
-355 329 374 332 377 335 359 380 0
-355 353 374 332 377 335 359 380 0
-356 -330 -354 -375 -333 0
-356 -330 -354 -375 -378 0
-356 -330 -354 -375 -336 0
-356 -330 -354 -375 -360 0
-356 -330 -354 -375 -381 0
-356 -330 -354 -333 -378 0
-356 -330 -354 -333 -336 0
-356 -330 -354 -333 -360 0
-356 -330 -354 -333 -381 0
-356 -330 -354 -378 -336 0
-356 -330 -354 -378 -360 0
-356 -330 -354 -378 -381 0
-356 -330 -354 -336 -360 0
-356 -330 -354 -336 -381 0
-356 -330 -354 -360 -381 0
-356 -330 -375 -333 -378 0
-356 -330 -375 -333 -336 0
-356 -330 -375 -333 -360 0
-356 -330 -375 -333 -381 0
-356 -330 -375 -378 -336 0
-356 -330 -375 -378 -360 0
-356 -330 -375 -378 -381 0
-356 -330 -375 -336 -360 0
-356 -330 -375 -336 -381 0
-356 -330 -375 -360 -381 0
-356 -330 -333 -378 -336 0
-356 -330 -333 -378 -360 0
-356 -330 -333 -378 -381 0
-356 -330 -333 -336 -360 0
-356 -330 -333 -336 -381 0
-356 -330 -333 -360 -381 0
-356 -330 -378 -336 -360 0
-356 -330 -378 -336 -381 0
-356 -330 -378 -360 -381 0
-356 -330 -336 -360 -381 0
-356 -354 -375 -333 -378 0
-356 -354 -375 -333 -336 0
-356 -354 -375 -333 -360 0
-356 -354 -375 -333 -381 0
-356 -354 -375 -378 -336 0
-356 -354 -375 -378 -360 0
-356 -354 -375 -378 -381 0
-356 -354 -375 -336 -360 0
-356 -354 -375 -336 -381 0
-356 -354 -375 -360 -381 0
-356 -354 -333 -378 -336 0
-356 -354 -333 -378 -360 0
-356 -354 -333 -378 -381 0
-356 -354 -333 -336 -360 0
-356 -354 -333 -336 -381 0
-356 -354 -333 -360 -381 0
-356 -354 -378 -336 -360 0
-356 -354 -378 -336 -381 0
-356 -354 -378 -360 -381 0
-356 -354 -336 -360 -381 0
-356 -375 -333 -378 -336 0
-356 -375 -333 -378 -360 0
-356 -375 -333 -378 -381 0
-356 -375 -333 -336 -360 0
-356 -375 -333 -336 -381 0
-356 -375 -333 -360 -381 0
-356 -375 -378 -336 -360 0
-356 -375 -378 -336 -381 0
-356 -375 -378 -360 -381 0
-356 -375 -336 -360 -381 0
-356 -333 -378 -336 -360 0
-356 -333 -378 -336 -381 0
-356 -333 -378 -360 -381 0
-356 -333 -336 -360 -381 0
-356 -378 -336 -360 -381 0
-356 330 354 375 333 378 336 0
-356 330 354 375 333 378 360 0
-356 330 354 375 333 378 381 0
-356 330 354 375 333 336 360 0
-356 330 354 375 333 336 381 0
-356 330 354 375 333 360 381 0
-356 330 354 375 378 336 360 0
-356 330 354 375 378 336 381 0
-356 330 354 375 378 360 381 0
-356 330 354 375 336 360 381 0
-356 330 354 333 378 336 360 0
-356 330 354 333 378 336 381 0
-356 330 354 333 378 360 381 0
-356 330 354 333 336 360 381 0
-356 330 354 378 336 360 381 0
-356 330 375 333 378 336 360 0
-356 330 375 333 378 336 381 0
-356 330 375 333 378 360 381 0
-356 330 375 333 336 360 381 0
-356 330 375 378 336 360 381 0
-356 330 333 378 336 360 381 0
-356 354 375 333 378 336 360 0
-356 354 375 333 378 336 381 0
-356 354 375 333 378 360 381 0
-356 354 375 333 336 360 381 0
-356 354 375 378 336 360 381 0
-356 354 333 378 336 360 381 0
-356 375 333 378 336 360 381 0
-357 -328 -352 -373 -331 -376 0
-357 -328 -352 -373 -331 -334 0
-357 -328 -352 -373 -331 -358 0
-357 -328 -352 -373 -331 -379 0
-357 -328 -352 -373 -376 -334 0
-357 -328 -352 -373 -376 -358 0
-357 -328 -352 -373 -376 -379 0
-357 -328 -352 -373 -334 -358 0
-357 -328 -352 -373 -334 -379 0
-357 -328 -352 -373 -358 -379 0
-357 -328 -352 -331 -376 -334 0
-357 -328 -352 -331 -376 -358 0
-357 -328 -352 -331 -376 -379 0
-357 -328 -352 -331 -334 -358 0
-357 -328 -352 -331 -334 -379 0
-357 -328 -352 -331 -358 -379 0
-357 -328 -352 -376 -334 -358 0
-357 -328 -352 -376 -334 -379 0
-357 -328 -352 -376 -358 -379 0
-357 -328 -352 -334 -358 -379 0
-357 -328 -373 -331 -376 -334 0
-357 -328 -373 -331 -376 -358 0
-357 -328 -373 -331 -376 -379 0
-357 -328 -373 -331 -334 -358 0
-357 -328 -373 -331 -334 -379 0
-357 -328 -373 -331 -358 -379 0
-357 -328 -373 -376 -334 -358 0
-357 -328 -373 -376 -334 -379 0
-357 -328 -373 -376 -358 -379 0
-357 -328 -373 -334 -358 -379 0
-357 -328 -331 -376 -334 -358 0
-357 -328 -331 -376 -334 -379 0
-357 -328 -331 -376 -358 -379 0
-357 -328 -331 -334 -358 -379 0
-357 -328 -376 -334 -358 -379 0
-357 -352 -373 -331 -376 -334 0
-357 -352 -373 -331 -376 -358 0
-357 -352 -373 -331 -376 -379 0
-357 -352 -373 -331 -334 -358 0
-357 -352 -373 -331 -334 -379 0
-357 -352 -373 -331 -358 -379 0
-357 -352 -373 -376 -334 -358 0
-357 -352 -373 -376 -334 -379 0
-357 -352 -373 -376 -358 -379 0
-357 -352 -373 -334 -358 -379 0
-357 -352 -331 -376 -334 -358 0
-357 -352 -331 -376 -334 -379 0
-357 -352 -331 -376 -358 -379 0
-357 -352 -331 -334 -358 -379 0
-357 -352 -376 -334 -358 -379 0
-357 -373 -331 -376 -334 -358 0
-357 -373 -331 -376 -334 -379 0
-357 -373 -331 -376 -358 -379 0
-357 -373 -331 -334 -358 -379 0
-357 -373 -376 -334 -358 -379 0
-357 -331 -376 -334 -358 -379 0
-357 328 352 373 331 376 0
-357 328 352 373 331 334 0
-357 328 352 373 331 358 0
-357 328 352 373 331 379 0
-357 328 352 373 376 334 0
-357 328 352 373 376 358 0
-357 328 352 373 376 379 0
-357 328 352 373 334 358 0
-357 328 352 373 334 379 0
-357 328 352 373 358 379 0
-357 328 352 331 376 334 0
-357 328 352 331 376 358 0
-357 328 352 331 376 379 0
-357 328 352 331 334 358 0
-357 328 352 331 334 379 0
-357 328 352 331 358 379 0
-357 328 352 376 334 358 0
-357 328 352 376 334 379 0
-357 328 352 376 358 379 0
-357 328 352 334 358 379 0
-357 328 373 331 376 334 0
-357 328 373 331 376 358 0
-357 328 373 331 376 379 0
-357 328 373 331 334 358 0
-357 328 373 331 334 379 0
-357 328 373 331 358 379 0
-357 328 373 376 334 358 0
-357 328 373 376 334 379 0
-357 328 373 376 358 379 0
-357 328 373 334 358 379 0
-357 328 331 376 334 358 0
-357 328 331 376 334 379 0
-357 328 331 376 358 379 0
-357 328 331 334 358 379 0
-357 328 376 334 358 379 0
-357 352 373 331 376 334 0
-357 352 373 331 376 358 0
-357 352 373 331 376 379 0
-357 352 373 331 334 358 0
-357 352 373 331 334 379 0
-357 352 373 331 358 379 0
-357 352 373 376 334 358 0
-357 352 373 376 334 379 0
-357 352 373 376 358 379 0
-357 352 373 334 358 379 0
-357 352 331 376 334 358 0
-357 352 331 376 334 379 0
-357 352 331 376 358 379 0
-357 352 331 334 358 379 0
-357 352 376 334 358 379 0
-357 373 331 376 334 358 0
-357 373 331 376 334 379 0
-357 373 331 376 358 379 0
-357 373 331 334 358 379 0
-357 373 376 334 358 379 0
-357 331 376 334 358 379 0
-358 -359 0
-358 -360 0
-359 -360 0
-358 -332 -356 -377 0
-358 -332 -356 -335 0
-358 -332 -356 -380 0
-358 -332 -356 -338 0
-358 -332 -356 -362 0
-358 -332 -356 -383 0
-358 -332 -377 -335 0
-358 -332 -377 -380 0
-358 -332 -377 -338 0
-358 -332 -377 -362 0
-358 -332 -377 -383 0
-358 -332 -335 -380 0
-358 -332 -335 -338 0
-358 -332 -335 -362 0
-358 -332 -335 -383 0
-358 -332 -380 -338 0
-358 -332 -380 -362 0
-358 -332 -380 -383 0
-358 -332 -338 -362 0
-358 -332 -338 -383 0
-358 -332 -362 -383 0
-358 -356 -377 -335 0
-358 -356 -377 -380 0
-358 -356 -377 -338 0
-358 -356 -377 -362 0
-358 -356 -377 -383 0
-358 -356 -335 -380 0
-358 -356 -335 -338 0
-358 -356 -335 -362 0
-358 -356 -335 -383 0
-358 -356 -380 -338 0
-358 -356 -380 -362 0
-358 -356 -380 -383 0
-358 -356 -338 -362 0
-358 -356 -338 -383 0
-358 -356 -362 -383 0
-358 -377 -335 -380 0
-358 -377 -335 -338 0
-358 -377 -335 -362 0
-358 -377 -335 -383 0
-358 -377 -380 -338 0
-358 -377 -380 -362 0
-358 -377 -380 -383 0
-358 -377 -338 -362 0
-358 -377 -338 -383 0
-358 -377 -362 -383 0
-358 -335 -380 -338 0
-358 -335 -380 -362 0
-358 -335 -380 -383 0
-358 -335 -338 -362 0
-358 -335 -338 -383 0
-358 -335 -362 -383 0
-358 -380 -338 -362 0
-358 -380 -338 -383 0
-358 -380 -362 -383 0
-358 -338 -362 -383 0
-358 332 356 377 335 380 338 362 0
-358 332 356 377 335 380 338 383 0
-358 332 356 377 335 380 362 383 0
-358 332 356 377 335 338 362 383 0
-358 332 356 377 380 338 362 383 0
-358 332 356 335 380 338 362 383 0
-358 332 377 335 380 338 362 383 0
-358 356 377 335 380 338 362 383 0
-359 -333 -357 -378 -336 0
-359 -333 -357 -378 -381 0
-359 -333 -357 -378 -339 0
-359 -333 -357 -378 -363 0
-359 -333 -357 -378 -384 0
-359 -333 -357 -336 -381 0
-359 -333 -357 -336 -339 0
-359 -333 -357 -336 -363 0
-359 -333 -357 -336 -384 0
-359 -333 -357 -381 -339 0
-359 -333 -357 -381 -363 0
-359 -333 -357 -381 -384 0
-359 -333 -357 -339 -363 0
-359 -333 -357 -339 -384 0
-359 -333 -357 -363 -384 0
-359 -333 -378 -336 -381 0
-359 -333 -378 -336 -339 0
-359 -333 -378 -336 -363 0
-359 -333 -378 -336 -384 0
-359 -333 -378 -381 -339 0
-359 -333 -378 -381 -363 0
-359 -333 -378 -381 -384 0
-359 -333 -378 -339 -363 0
-359 -333 -378 -339 -384 0
-359 -333 -378 -363 -384 0
-359 -333 -336 -381 -339 0
-359 -333 -336 -381 -363 0
-359 -333 -336 -381 -384 0
-359 -333 -336 -339 -363 0
-359 -333 -336 -339 -384 0
-359 -333 -336 -363 -384 0
-359 -333 -381 -339 -363 0
-359 -333 -381 -339 -384 0
-359 -333 -381 -363 -384 0
-359 -333 -339 -363 -384 0
-359 -357 -378 -336 -381 0
-359 -357 -378 -336 -339 0
-359 -357 -378 -336 -363 0
-359 -357 -378 -336 -384 0
-359 -357 -378 -381 -339 0
-359 -357 -378 -381 -363 0
-359 -357 -378 -381 -384 0
-359 -357 -378 -339 -363 0
-359 -357 -378 -339 -384 0
-359 -357 -378 -363 -384 0
-359 -357 -336 -381 -339 0
-359 -357 -336 -381 -363 0
-359 -357 -336 -381 -384 0
-359 -357 -336 -339 -363 0
-359 -357 -336 -339 -384 0
-359 -357 -336 -363 -384 0
-359 -357 -381 -339 -363 0
-359 -357 -381 -339 -384 0
-359 -357 -381 -363 -384 0
-359 -357 -339 -363 -384 0
-359 -378 -336 -381 -339 0
-359 -378 -336 -381 -363 0
-359 -378 -336 -381 -384 0
-359 -378 -336 -339 -363 0
-359 -378 -336 -339 -384 0
-359 -378 -336 -363 -384 0
-359 -378 -381 -339 -363 0
-359 -378 -381 -339 -384 0
-359 -378 -381 -363 -384 0
-359 -378 -339 -363 -384 0
-359 -336 -381 -339 -363 0
-359 -336 -381 -339 -384 0
-359 -336 -381 -363 -384 0
-359 -336 -339 -363 -384 0
-359 -381 -339 -363 -384 0
-359 333 357 378 336 381 339 0
-359 333 357 378 336 381 363 0
-359 333 357 378 336 381 384 0
-359 333 357 378 336 339 363 0
-359 333 357 378 336 339 384 0
-359 333 357 378 336 363 384 0
-359 333 357 378 381 339 363 0
-359 333 357 378 381 339 384 0
-359 333 357 378 381 363 384 0
-359 333 357 378 339 363 384 0
-359 333 357 336 381 339 363 0
-359 333 357 336 381 339 384 0
-359 333 357 336 381 363 384 0
-359 333 357 336 339 363 384 0
-359 333 357 381 339 363 384 0
-359 333 378 336 381 339 363 0
-359 333 378 336 381 339 384 0
-359 333 378 336 381 363 384 0
-359 333 378 336 339 363 384 0
-359 333 378 381 339 363 384 0
-359 333 336 381 339 363 384 0
-359 357 378 336 381 339 363 0
-359 357 378 336 381 339 384 0
-359 357 378 336 381 363 384 0
-359 357 378 336 339 363 384 0
-359 357 378 381 339 363 384 0
-359 357 336 381 339 363 384 0
-359 378 336 381 339 363 384 0
-360 -331 -355 -376 -334 -379 0
-360 -331 -355 -376 -334 -337 0
-360 -331 -355 -376 -334 -361 0
-360 -331 -355 -376 -334 -382 0
-360 -331 -355 -376 -379 -337 0
-360 -331 -355 -376 -379 -361 0
-360 -331 -355 -376 -379 -382 0
-360 -331 -355 -376 -337 -361 0
-360 -331 -355 -376 -337 -382 0
-360 -331 -355 -376 -361 -382 0
-360 -331 -355 -334 -379 -337 0
-360 -331 -355 -334 -379 -361 0
-360 -331 -355 -334 -379 -382 0
-360 -331 -355 -334 -337 -361 0
-360 -331 -355 -334 -337 -382 0
-360 -331 -355 -334 -361 -382 0
-360 -331 -355 -379 -337 -361 0
-360 -331 -355 -379 -337 -382 0
-360 -331 -355 -379 -361 -382 0
-360 -331 -355 -337 -361 -382 0
-360 -331 -376 -334 -379 -337 0
-360 -331 -376 -334 -379 -361 0
-360 -331 -376 -334 -379 -382 0
-360 -331 -376 -334 -337 -361 0
-360 -331 -376 -334 -337 -382 0
-360 -331 -376 -334 -361 -382 0
-360 -331 -376 -379 -337 -361 0
-360 -331 -376 -379 -337 -382 0
-360 -331 -376 -379 -361 -382 0
-360 -331 -376 -337 -361 -382 0
-360 -331 -334 -379 -337 -361 0
-360 -331 -334 -379 -337 -382 0
-360 -331 -334 -379 -361 -382 0
-360 -331 -334 -337 -361 -382 0
-360 -331 -379 -337 -361 -382 0
-360 -355 -376 -334 -379 -337 0
-360 -355 -376 -334 -379 -361 0
-360 -355 -376 -334 -379 -382 0
-360 -355 -376 -334 -337 -361 0
-360 -355 -376 -334 -337 -382 0
-360 -355 -376 -334 -361 -382 0
-360 -355 -376 -379 -337 -361 0
-360 -355 -376 -379 -337 -382 0
-360 -355 -376 -379 -361 -382 0
-360 -355 -376 -337 -361 -382 0
-360 -355 -334 -379 -337 -361 0
-360 -355 -334 -379 -337 -382 0
-360 -355 -334 -379 -361 -382 0
-360 -355 -334 -337 -361 -382 0
-360 -355 -379 -337 -361 -382 0
-360 -376 -334 -379 -337 -361 0
-360 -376 -334 -379 -337 -382 0
-360 -376 -334 -379 -361 -382 0
-360 -376 -334 -337 -361 -382 0
-360 -376 -379 -337 -361 -382 0
-360 -334 -379 -337 -361 -382 0
-360 331 355 376 334 379 0
-360 331 355 376 334 337 0
-360 331 355 376 334 361 0
-360 331 355 376 334 382 0
-360 331 355 376 379 337 0
-360 331 355 376 379 361 0
-360 331 355 376 379 382 0
-360 331 355 376 337 361 0
-360 331 355 376 337 382 0
-360 331 355 376 361 382 0
-360 331 355 334 379 337 0
-360 331 355 334 379 361 0
-360 331 355 334 379 382 0
-360 331 355 334 337 361 0
-360 331 355 334 337 382 0
-360 331 355 334 361 382 0
-360 331 355 379 337 361 0
-360 331 355 379 337 382 0
-360 331 355 379 361 382 0
-360 331 355 337 361 382 0
-360 331 376 334 379 337 0
-360 331 376 334 379 361 0
-360 331 376 334 379 382 0
-360 331 376 334 337 361 0
-360 331 376 334 337 382 0
-360 331 376 334 361 382 0
-360 331 376 379 337 361 0
-360 331 376 379 337 382 0
-360 331 376 379 361 382 0
-360 331 376 337 361 382 0
-360 331 334 379 337 361 0
-360 331 334 379 337 382 0
-360 331 334 379 361 382 0
-360 331 334 337 361 382 0
-360 331 379 337 361 382 0
-360 355 376 334 379 337 0
-360 355 376 334 379 361 0
-360 355 376 334 379 382 0
-360 355 376 334 337 361 0
-360 355 376 334 337 382 0
-360 355 376 334 361 382 0
-360 355 376 379 337 361 0
-360 355 376 379 337 382 0
-360 355 376 379 361 382 0
-360 355 376 337 361 382 0
-360 355 334 379 337 361 0
-360 355 334 379 337 382 0
-360 355 334 379 361 382 0
-360 355 334 337 361 382 0
-360 355 379 337 361 382 0
-360 376 334 379 337 361 0
-360 376 334 379 337 382 0
-360 376 334 379 361 382 0
-360 376 334 337 361 382 0
-360 376 379 337 361 382 0
-360 334 379 337 361 382 0
-361 -362 0
-361 -363 0
-362 -363 0
-361 -335 -359 -380 0
-361 -335 -359 -338 0
-361 -335 -359 -383 0
-361 -335 -359 -341 0
-361 -335 -359 -365 0
-361 -335 -359 -386 0
-361 -335 -380 -338 0
-361 -335 -380 -383 0
-361 -335 -380 -341 0
-361 -335 -380 -365 0
-361 -335 -380 -386 0
-361 -335 -338 -383 0
-361 -335 -338 -341 0
-361 -335 -338 -365 0
-361 -335 -338 -386 0
-361 -335 -383 -341 0
-361 -335 -383 -365 0
-361 -335 -383 -386 0
-361 -335 -341 -365 0
-361 -335 -341 -386 0
-361 -335 -365 -386 0
-361 -359 -380 -338 0
-361 -359 -380 -383 0
-361 -359 -380 -341 0
-361 -359 -380 -365 0
-361 -359 -380 -386 0
-361 -359 -338 -383 0
-361 -359 -338 -341 0
-361 -359 -338 -365 0
-361 -359 -338 -386 0
-361 -359 -383 -341 0
-361 -359 -383 -365 0
-361 -359 -383 -386 0
-361 -359 -341 -365 0
-361 -359 -341 -386 0
-361 -359 -365 -386 0
-361 -380 -338 -383 0
-361 -380 -338 -341 0
-361 -380 -338 -365 0
-361 -380 -338 -386 0
-361 -380 -383 -341 0
-361 -380 -383 -365 0
-361 -380 -383 -386 0
-361 -380 -341 -365 0
-361 -380 -341 -386 0
-361 -380 -365 -386 0
-361 -338 -383 -341 0
-361 -338 -383 -365 0
-361 -338 -383 -386 0
-361 -338 -341 -365 0
-361 -338 -341 -386 0
-361 -338 -365 -386 0
-361 -383 -341 -365 0
-361 -383 -341 -386 0
-361 -383 -365 -386 0
-361 -341 -365 -386 0
-361 335 359 380 338 383 341 365 0
-361 335 359 380 338 383 341 386 0
-361 335 359 380 338 383 365 386 0
-361 335 359 380 338 341 365 386 0
-361 335 359 380 383 341 365 386 0
-361 335 359 338 383 341 365 386 0
-361 335 380 338 383 341 365 386 0
-361 359 380 338 383 341 365 386 0
-362 -336 -360 -381 -339 0
-362 -336 -360 -381 -384 0
-362 -336 -360 -381 -342 0
-362 -336 -360 -381 -366 0
-362 -336 -360 -381 -387 0
-362 -336 -360 -339 -384 0
-362 -336 -360 -339 -342 0
-362 -336 -360 -339 -366 0
-362 -336 -360 -339 -387 0
-362 -336 -360 -384 -342 0
-362 -336 -360 -384 -366 0
-362 -336 -360 -384 -387 0
-362 -336 -360 -342 -366 0
-362 -336 -360 -342 -387 0
-362 -336 -360 -366 -387 0
-362 -336 -381 -339 -384 0
-362 -336 -381 -339 -342 0
-362 -336 -381 -339 -366 0
-362 -336 -381 -339 -387 0
-362 -336 -381 -384 -342 0
-362 -336 -381 -384 -366 0
-362 -336 -381 -384 -387 0
-362 -336 -381 -342 -366 0
-362 -336 -381 -342 -387 0
-362 -336 -381 -366 -387 0
-362 -336 -339 -384 -342 0
-362 -336 -339 -384 -366 0
-362 -336 -339 -384 -387 0
-362 -336 -339 -342 -366 0
-362 -336 -339 -342 -387 0
-362 -336 -339 -366 -387 0
-362 -336 -384 -342 -366 0
-362 -336 -384 -342 -387 0
-362 -336 -384 -366 -387 0
-362 -336 -342 -366 -387 0
-362 -360 -381 -339 -384 0
-362 -360 -381 -339 -342 0
-362 -360 -381 -339 -366 0
-362 -360 -381 -339 -387 0
-362 -360 -381 -384 -342 0
-362 -360 -381 -384 -366 0
-362 -360 -381 -384 -387 0
-362 -360 -381 -342 -366 0
-362 -360 -381 -342 -387 0
-362 -360 -381 -366 -387 0
-362 -360 -339 -384 -342 0
-362 -360 -339 -384 -366 0
-362 -360 -339 -384 -387 0
-362 -360 -339 -342 -366 0
-362 -360 -339 -342 -387 0
-362 -360 -339 -366 -387 0
-362 -360 -384 -342 -366 0
-362 -360 -384 -342 -387 0
-362 -360 -384 -366 -387 0
-362 -360 -342 -366 -387 0
-362 -381 -339 -384 -342 0
-362 -381 -339 -384 -366 0
-362 -381 -339 -384 -387 0
-362 -381 -339 -342 -366 0
-362 -381 -339 -342 -387 0
-362 -381 -339 -366 -387 0
-362 -381 -384 -342 -366 0
-362 -381 -384 -342 -387 0
-362 -381 -384 -366 -387 0
-362 -381 -342 -366 -387 0
-362 -339 -384 -342 -366 0
-362 -339 -384 -342 -387 0
-362 -339 -384 -366 -387 0
-362 -339 -342 -366 -387 0
-362 -384 -342 -366 -387 0
-362 336 360 381 339 384 342 0
-362 336 360 381 339 384 366 0
-362 336 360 381 339 384 387 0
-362 336 360 381 339 342 366 0
-362 336 360 381 339 342 387 0
-362 336 360 381 339 366 387 0
-362 336 360 381 384 342 366 0
-362 336 360 381 384 342 387 0
-362 336 360 381 384 366 387 0
-362 336 360 381 342 366 387 0
-362 336 360 339 384 342 366 0
-362 336 360 339 384 342 387 0
-362 336 360 339 384 366 387 0
-362 336 360 339 342 366 387 0
-362 336 360 384 342 366 387 0
-362 336 381 339 384 342 366 0
-362 336 381 339 384 342 387 0
-362 336 381 339 384 366 387 0
-362 336 381 339 342 366 387 0
-362 336 381 384 342 366 387 0
-362 336 339 384 342 366 387 0
-362 360 381 339 384 342 366 0
-362 360 381 339 384 342 387 0
-362 360 381 339 384 366 387 0
-362 360 381 339 342 366 387 0
-362 360 381 384 342 366 387 0
-362 360 339 384 342 366 387 0
-362 381 339 384 342 366 387 0
-363 -334 -358 -379 -337 -382 0
-363 -334 -358 -379 -337 -340 0
-363 -334 -358 -379 -337 -364 0
-363 -334 -358 -379 -337 -385 0
-363 -334 -358 -379 -382 -340 0
-363 -334 -358 -379 -382 -364 0
-363 -334 -358 -379 -382 -385 0
-363 -334 -358 -379 -340 -364 0
-363 -334 -358 -379 -340 -385 0
-363 -334 -358 -379 -364 -385 0
-363 -334 -358 -337 -382 -340 0
-363 -334 -358 -337 -382 -364 0
-363 -334 -358 -337 -382 -385 0
-363 -334 -358 -337 -340 -364 0
-363 -334 -358 -337 -340 -385 0
-363 -334 -358 -337 -364 -385 0
-363 -334 -358 -382 -340 -364 0
-363 -334 -358 -382 -340 -385 0
-363 -334 -358 -382 -364 -385 0
-363 -334 -358 -340 -364 -385 0
-363 -334 -379 -337 -382 -340 0
-363 -334 -379 -337 -382 -364 0
-363 -334 -379 -337 -382 -385 0
-363 -334 -379 -337 -340 -364 0
-363 -334 -379 -337 -340 -385 0
-363 -334 -379 -337 -364 -385 0
-363 -334 -379 -382 -340 -364 0
-363 -334 -379 -382 -340 -385 0
-363 -334 -379 -382 -364 -385 0
-363 -334 -379 -340 -364 -385 0
-363 -334 -337 -382 -340 -364 0
-363 -334 -337 -382 -340 -385 0
-363 -334 -337 -382 -364 -385 0
-363 -334 -337 -340 -364 -385 0
-363 -334 -382 -340 -364 -385 0
-363 -358 -379 -337 -382 -340 0
-363 -358 -379 -337 -382 -364 0
-363 -358 -379 -337 -382 -385 0
-363 -358 -379 -337 -340 -364 0
-363 -358 -379 -337 -340 -385 0
-363 -358 -379 -337 -364 -385 0
-363 -358 -379 -382 -340 -364 0
-363 -358 -379 -382 -340 -385 0
-363 -358 -379 -382 -364 -385 0
-363 -358 -379 -340 -364 -385 0
-363 -358 -337 -382 -340 -364 0
-363 -358 -337 -382 -340 -385 0
-363 -358 -337 -382 -364 -385 0
-363 -358 -337 -340 -364 -385 0
-363 -358 -382 -340 -364 -385 0
-363 -379 -337 -382 -340 -364 0
-363 -379 -337 -382 -340 -385 0
-363 -379 -337 -382 -364 -385 0
-363 -379 -337 -340 -364 -385 0
-363 -379 -382 -340 -364 -385 0
-363 -337 -382 -340 -364 -385 0
-363 334 358 379 337 382 0
-363 334 358 379 337 340 0
-363 334 358 379 337 364 0
-363 334 358 379 337 385 0
-363 334 358 379 382 340 0
-363 334 358 379 382 364 0
-363 334 358 379 382 385 0
-363 334 358 379 340 364 0
-363 334 358 379 340 385 0
-363 334 358 379 364 385 0
-363 334 358 337 382 340 0
-363 334 358 337 382 364 0
-363 334 358 337 382 385 0
-363 334 358 337 340 364 0
-363 334 358 337 340 385 0
-363 334 358 337 364 385 0
-363 334 358 382 340 364 0
-363 334 358 382 340 385 0
-363 334 358 382 364 385 0
-363 334 358 340 364 385 0
-363 334 379 337 382 340 0
-363 334 379 337 382 364 0
-363 334 379 337 382 385 0
-363 334 379 337 340 364 0
-363 334 379 337 340 385 0
-363 334 379 337 364 385 0
-363 334 379 382 340 364 0
-363 334 379 382 340 385 0
-363 334 379 382 364 385 0
-363 334 379 340 364 385 0
-363 334 337 382 340 364 0
-363 334 337 382 340 385 0
-363 334 337 382 364 385 0
-363 334 337 340 364 385 0
-363 334 382 340 364 385 0
-363 358 379 337 382 340 0
-363 358 379 337 382 364 0
-363 358 379 337 382 385 0
-363 358 379 337 340 364 0
-363 358 379 337 340 385 0
-363 358 379 337 364 385 0
-363 358 379 382 340 364 0
-363 358 379 382 340 385 0
-363 358 379 382 364 385 0
-363 358 379 340 364 385 0
-363 358 337 382 340 364 0
-363 358 337 382 340 385 0
-363 358 337 382 364 385 0
-363 358 337 340 364 385 0
-363 358 382 340 364 385 0
-363 379 337 382 340 364 0
-363 379 337 382 340 385 0
-363 379 337 382 364 385 0
-363 379 337 340 364 385 0
-363 379 382 340 364 385 0
-363 337 382 340 364 385 0
-364 -365 0
-364 -366 0
-365 -366 0
-364 -338 -362 -383 0
-364 -338 -362 -341 0
-364 -338 -362 -386 0
-364 -338 -362 -344 0
-364 -338 -362 -368 0
-364 -338 -362 -389 0
-364 -338 -383 -341 0
-364 -338 -383 -386 0
-364 -338 -383 -344 0
-364 -338 -383 -368 0
-364 -338 -383 -389 0
-364 -338 -341 -386 0
-364 -338 -341 -344 0
-364 -338 -341 -368 0
-364 -338 -341 -389 0
-364 -338 -386 -344 0
-364 -338 -386 -368 0
-364 -338 -386 -389 0
-364 -338 -344 -368 0
-364 -338 -344 -389 0
-364 -338 -368 -389 0
-364 -362 -383 -341 0
-364 -362 -383 -386 0
-364 -362 -383 -344 0
-364 -362 -383 -368 0
-364 -362 -383 -389 0
-364 -362 -341 -386 0
-364 -362 -341 -344 0
-364 -362 -341 -368 0
-364 -362 -341 -389 0
-364 -362 -386 -344 0
-364 -362 -386 -368 0
-364 -362 -386 -389 0
-364 -362 -344 -368 0
-364 -362 -344 -389 0
-364 -362 -368 -389 0
-364 -383 -341 -386 0
-364 -383 -341 -344 0
-364 -383 -341 -368 0
-364 -383 -341 -389 0
-364 -383 -386 -344 0
-364 -383 -386 -368 0
-364 -383 -386 -389 0
-364 -383 -344 -368 0
-364 -383 -344 -389 0
-364 -383 -368 -389 0
-364 -341 -386 -344 0
-364 -341 -386 -368 0
-364 -341 -386 -389 0
-364 -341 -344 -368 0
-364 -341 -344 -389 0
-364 -341 -368 -389 0
-364 -386 -344 -368 0
-364 -386 -344 -389 0
-364 -386 -368 -389 0
-364 -344 -368 -389 0
-364 338 362 383 341 386 344 368 0
-364 338 362 383 341 386 344 389 0
-364 338 362 383 341 386 368 389 0
-364 338 362 383 341 344 368 389 0
-364 338 362 383 386 344 368 389 0
-364 338 362 341 386 344 368 389 0
-364 338 383 341 386 344 368 389 0
-364 362 383 341 386 344 368 389 0
-365 -339 -363 -384 -342 0
-365 -339 -363 -384 -387 0
-365 -339 -363 -384 -345 0
-365 -339 -363 -384 -369 0
-365 -339 -363 -384 -390 0
-365 -339 -363 -342 -387 0
-365 -339 -363 -342 -345 0
-365 -339 -363 -342 -369 0
-365 -339 -363 -342 -390 0
-365 -339 -363 -387 -345 0
-365 -339 -363 -387 -369 0
-365 -339 -363 -387 -390 0
-365 -339 -363 -345 -369 0
-365 -339 -363 -345 -390 0
-365 -339 -363 -369 -390 0
-365 -339 -384 -342 -387 0
-365 -339 -384 -342 -345 0
-365 -339 -384 -342 -369 0
-365 -339 -384 -342 -390 0
-365 -339 -384 -387 -345 0
-365 -339 -384 -387 -369 0
-365 -339 -384 -387 -390 0
-365 -339 -384 -345 -369 0
-365 -339 -384 -345 -390 0
-365 -339 -384 -369 -390 0
-365 -339 -342 -387 -345 0
-365 -339 -342 -387 -369 0
-365 -339 -342 -387 -390 0
-365 -339 -342 -345 -369 0
-365 -339 -342 -345 -390 0
-365 -339 -342 -369 -390 0
-365 -339 -387 -345 -369 0
-365 -339 -387 -345 -390 0
-365 -339 -387 -369 -390 0
-365 -339 -345 -369 -390 0
-365 -363 -384 -342 -387 0
-365 -363 -384 -342 -345 0
-365 -363 -384 -342 -369 0
-365 -363 -384 -342 -390 0
-365 -363 -384 -387 -345 0
-365 -363 -384 -387 -369 0
-365 -363 -384 -387 -390 0
-365 -363 -384 -345 -369 0
-365 -363 -384 -345 -390 0
-365 -363 -384 -369 -390 0
-365 -363 -342 -387 -345 0
-365 -363 -342 -387 -369 0
-365 -363 -342 -387 -390 0
-365 -363 -342 -345 -369 0
-365 -363 -342 -345 -390 0
-365 -363 -342 -369 -390 0
-365 -363 -387 -345 -369 0
-365 -363 -387 -345 -390 0
-365 -363 -387 -369 -390 0
-365 -363 -345 -369 -390 0
-365 -384 -342 -387 -345 0
-365 -384 -342 -387 -369 0
-365 -384 -342 -387 -390 0
-365 -384 -342 -345 -369 0
-365 -384 -342 -345 -390 0
-365 -384 -342 -369 -390 0
-365 -384 -387 -345 -369 0
-365 -384 -387 -345 -390 0
-365 -384 -387 -369 -390 0
-365 -384 -345 -369 -390 0
-365 -342 -387 -345 -369 0
-365 -342 -387 -345 -390 0
-365 -342 -387 -369 -390 0
-365 -342 -345 -369 -390 0
-365 -387 -345 -369 -390 0
-365 339 363 384 342 387 345 0
-365 339 363 384 342 387 369 0
-365 339 363 384 342 387 390 0
-365 339 363 384 342 345 369 0
-365 339 363 384 342 345 390 0
-365 339 363 384 342 369 390 0
-365 339 363 384 387 345 369 0
-365 339 363 384 387 345 390 0
-365 339 363 384 387 369 390 0
-365 339 363 384 345 369 390 0
-365 339 363 342 387 345 369 0
-365 339 363 342 387 345 390 0
-365 339 363 342 387 369 390 0
-365 339 363 342 345 369 390 0
-365 339 363 387 345 369 390 0
-365 339 384 342 387 345 369 0
-365 339 384 342 387 345 390 0
-365 339 384 342 387 369 390 0
-365 339 384 342 345 369 390 0
-365 339 384 387 345 369 390 0
-365 339 342 387 345 369 390 0
-365 363 384 342 387 345 369 0
-365 363 384 342 387 345 390 0
-365 363 384 342 387 369 390 0
-365 363 384 342 345 369 390 0
-365 363 384 387 345 369 390 0
-365 363 342 387 345 369 390 0
-365 384 342 387 345 369 390 0
-366 -337 -361 -382 -340 -385 0
-366 -337 -361 -382 -340 -343 0
-366 -337 -361 -382 -340 -367 0
-366 -337 -361 -382 -340 -388 0
-366 -337 -361 -382 -385 -343 0
-366 -337 -361 -382 -385 -367 0
-366 -337 -361 -382 -385 -388 0
-366 -337 -361 -382 -343 -367 0
-366 -337 -361 -382 -343 -388 0
-366 -337 -361 -382 -367 -388 0
-366 -337 -361 -340 -385 -343 0
-366 -337 -361 -340 -385 -367 0
-366 -337 -361 -340 -385 -388 0
-366 -337 -361 -340 -343 -367 0
-366 -337 -361 -340 -343 -388 0
-366 -337 -361 -340 -367 -388 0
-366 -337 -361 -385 -343 -367 0
-366 -337 -361 -385 -343 -388 0
-366 -337 -361 -385 -367 -388 0
-366 -337 -361 -343 -367 -388 0
-366 -337 -382 -340 -385 -343 0
-366 -337 -382 -340 -385 -367 0
-366 -337 -382 -340 -385 -388 0
-366 -337 -382 -340 -343 -367 0
-366 -337 -382 -340 -343 -388 0
-366 -337 -382 -340 -367 -388 0
-366 -337 -382 -385 -343 -367 0
-366 -337 -382 -385 -343 -388 0
-366 -337 -382 -385 -367 -388 0
-366 -337 -382 -343 -367 -388 0
-366 -337 -340 -385 -343 -367 0
-366 -337 -340 -385 -343 -388 0
-366 -337 -340 -385 -367 -388 0
-366 -337 -340 -343 -367 -388 0
-366 -337 -385 -343 -367 -388 0
-366 -361 -382 -340 -385 -343 0
-366 -361 -382 -340 -385 -367 0
-366 -361 -382 -340 -385 -388 0
-366 -361 -382 -340 -343 -367 0
-366 -361 -382 -340 -343 -388 0
-366 -361 -382 -340 -367 -388 0
-366 -361 -382 -385 -343 -367 0
-366 -361 -382 -385 -343 -388 0
-366 -361 -382 -385 -367 -388 0
-366 -361 -382 -343 -367 -388 0
-366 -361 -340 -385 -343 -367 0
-366 -361 -340 -385 -343 -388 0
-366 -361 -340 -385 -367 -388 0
-366 -361 -340 -343 -367 -388 0
-366 -361 -385 -343 -367 -388 0
-366 -382 -340 -385 -343 -367 0
-366 -382 -340 -385 -343 -388 0
-366 -382 -340 -385 -367 -388 0
-366 -382 -340 -343 -367 -388 0
-366 -382 -385 -343 -367 -388 0
-366 -340 -385 -343 -367 -388 0
-366 337 361 382 340 385 0
-366 337 361 382 340 343 0
-366 337 361 382 340 367 0
-366 337 361 382 340 388 0
-366 337 361 382 385 343 0
-366 337 361 382 385 367 0
-366 337 361 382 385 388 0
-366 337 361 382 343 367 0
-366 337 361 382 343 388 0
-366 337 361 382 367 388 0
-366 337 361 340 385 343 0
-366 337 361 340 385 367 0
-366 337 361 340 385 388 0
-366 337 361 340 343 367 0
-366 337 361 340 343 388 0
-366 337 361 340 367 388 0
-366 337 361 385 343 367 0
-366 337 361 385 343 388 0
-366 337 361 385 367 388 0
-366 337 361 343 367 388 0
-366 337 382 340 385 343 0
-366 337 382 340 385 367 0
-366 337 382 340 385 388 0
-366 337 382 340 343 367 0
-366 337 382 340 343 388 0
-366 337 382 340 367 388 0
-366 337 382 385 343 367 0
-366 337 382 385 343 388 0
-366 337 382 385 367 388 0
-366 337 382 343 367 388 0
-366 337 340 385 343 367 0
-366 337 340 385 343 388 0
-366 337 340 385 367 388 0
-366 337 340 343 367 388 0
-366 337 385 343 367 388 0
-366 361 382 340 385 343 0
-366 361 382 340 385 367 0
-366 361 382 340 385 388 0
-366 361 382 340 343 367 0
-366 361 382 340 343 388 0
-366 361 382 340 367 388 0
-366 361 382 385 343 367 0
-366 361 382 385 343 388 0
-366 361 382 385 367 388 0
-366 361 382 343 367 388 0
-366 361 340 385 343 367 0
-366 361 340 385 343 388 0
-366 361 340 385 367 388 0
-366 361 340 343 367 388 0
-366 361 385 343 367 388 0
-366 382 340 385 343 367 0
-366 382 340 385 343 388 0
-366 382 340 385 367 388 0
-366 382 340 343 367 388 0
-366 382 385 343 367 388 0
-366 340 385 343 367 388 0
-367 -368 0
-367 -369 0
-368 -369 0
-367 -341 -365 -386 0
-367 -341 -365 -344 0
-367 -341 -365 -389 0
-367 -341 -365 -347 0
-367 -341 -365 -371 0
-367 -341 -386 -344 0
-367 -341 -386 -389 0
-367 -341 -386 -347 0
-367 -341 -386 -371 0
-367 -341 -344 -389 0
-367 -341 -344 -347 0
-367 -341 -344 -371 0
-367 -341 -389 -347 0
-367 -341 -389 -371 0
-367 -341 -347 -371 0
-367 -365 -386 -344 0
-367 -365 -386 -389 0
-367 -365 -386 -347 0
-367 -365 -386 -371 0
-367 -365 -344 -389 0
-367 -365 -344 -347 0
-367 -365 -344 -371 0
-367 -365 -389 -347 0
-367 -365 -389 -371 0
-367 -365 -347 -371 0
-367 -386 -344 -389 0
-367 -386 -344 -347 0
-367 -386 -344 -371 0
-367 -386 -389 -347 0
-367 -386 -389 -371 0
-367 -386 -347 -371 0
-367 -344 -389 -347 0
-367 -344 -389 -371 0
-367 -344 -347 -371 0
-367 -389 -347 -371 0
-367 341 365 386 344 389 347 0
-367 341 365 386 344 389 371 0
-367 341 365 386 344 347 371 0
-367 341 365 386 389 347 371 0
-367 341 365 344 389 347 371 0
-367 341 386 344 389 347 371 0
-367 365 386 344 389 347 371 0
-368 -342 -366 -387 -345 0
-368 -342 -366 -387 -390 0
-368 -342 -366 -387 -348 0
-368 -342 -366 -387 -372 0
-368 -342 -366 -345 -390 0
-368 -342 -366 -345 -348 0
-368 -342 -366 -345 -372 0
-368 -342 -366 -390 -348 0
-368 -342 -366 -390 -372 0
-368 -342 -366 -348 -372 0
-368 -342 -387 -345 -390 0
-368 -342 -387 -345 -348 0
-368 -342 -387 -345 -372 0
-368 -342 -387 -390 -348 0
-368 -342 -387 -390 -372 0
-368 -342 -387 -348 -372 0
-368 -342 -345 -390 -348 0
-368 -342 -345 -390 -372 0
-368 -342 -345 -348 -372 0
-368 -342 -390 -348 -372 0
-368 -366 -387 -345 -390 0
-368 -366 -387 -345 -348 0
-368 -366 -387 -345 -372 0
-368 -366 -387 -390 -348 0
-368 -366 -387 -390 -372 0
-368 -366 -387 -348 -372 0
-368 -366 -345 -390 -348 0
-368 -366 -345 -390 -372 0
-368 -366 -345 -348 -372 0
-368 -366 -390 -348 -372 0
-368 -387 -345 -390 -348 0
-368 -387 -345 -390 -372 0
-368 -387 -345 -348 -372 0
-368 -387 -390 -348 -372 0
-368 -345 -390 -348 -372 0
-368 342 366 387 345 390 0
-368 342 366 387 345 348 0
-368 342 366 387 345 372 0
-368 342 366 387 390 348 0
-368 342 366 387 390 372 0
-368 342 366 387 348 372 0
-368 342 366 345 390 348 0
-368 342 366 345 390 372 0
-368 342 366 345 348 372 0
-368 342 366 390 348 372 0
-368 342 387 345 390 348 0
-368 342 387 345 390 372 0
-368 342 387 345 348 372 0
-368 342 387 390 348 372 0
-368 342 345 390 348 372 0
-368 366 387 345 390 348 0
-368 366 387 345 390 372 0
-368 366 387 345 348 372 0
-368 366 387 390 348 372 0
-368 366 345 390 348 372 0
-368 387 345 390 348 372 0
-369 -340 -364 -385 -343 -388 0
-369 -340 -364 -385 -343 -346 0
-369 -340 -364 -385 -343 -370 0
-369 -340 -364 -385 -388 -346 0
-369 -340 -364 -385 -388 -370 0
-369 -340 -364 -385 -346 -370 0
-369 -340 -364 -343 -388 -346 0
-369 -340 -364 -343 -388 -370 0
-369 -340 -364 -343 -346 -370 0
-369 -340 -364 -388 -346 -370 0
-369 -340 -385 -343 -388 -346 0
-369 -340 -385 -343 -388 -370 0
-369 -340 -385 -343 -346 -370 0
-369 -340 -385 -388 -346 -370 0
-369 -340 -343 -388 -346 -370 0
-369 -364 -385 -343 -388 -346 0
-369 -364 -385 -343 -388 -370 0
-369 -364 -385 -343 -346 -370 0
-369 -364 -385 -388 -346 -370 0
-369 -364 -343 -388 -346 -370 0
-369 -385 -343 -388 -346 -370 0
-369 340 364 385 343 0
-369 340 364 385 388 0
-369 340 364 385 346 0
-369 340 364 385 370 0
-369 340 364 343 388 0
-369 340 364 343 346 0
-369 340 364 343 370 0
-369 340 364 388 346 0
-369 340 364 388 370 0
-369 340 364 346 370 0
-369 340 385 343 388 0
-369 340 385 343 346 0
-369 340 385 343 370 0
-369 340 385 388 346 0
-369 340 385 388 370 0
-369 340 385 346 370 0
-369 340 343 388 346 0
-369 340 343 388 370 0
-369 340 343 346 370 0
-369 340 388 346 370 0
-369 364 385 343 388 0
-369 364 385 343 346 0
-369 364 385 343 370 0
-369 364 385 388 346 0
-369 364 385 388 370 0
-369 364 385 346 370 0
-369 364 343 388 346 0
-369 364 343 388 370 0
-369 364 343 346 370 0
-369 364 388 346 370 0
-369 385 343 388 346 0
-369 385 343 388 370 0
-369 385 343 346 370 0
-369 385 388 346 370 0
-369 343 388 346 370 0
-370 -371 0
-370 -372 0
-371 -372 0
-370 -344 -368 -389 0
-370 -344 -368 -347 0
-370 -344 -368 -350 0
-370 -344 -389 -347 0
-370 -344 -389 -350 0
-370 -344 -347 -350 0
-370 -368 -389 -347 0
-370 -368 -389 -350 0
-370 -368 -347 -350 0
-370 -389 -347 -350 0
-370 344 368 389 347 0
-370 344 368 389 350 0
-370 344 368 347 350 0
-370 344 389 347 350 0
-370 368 389 347 350 0
-371 -345 -369 -390 -348 0
-371 -345 -369 -390 -351 0
-371 -345 -369 -348 -351 0
-371 -345 -390 -348 -351 0
-371 -369 -390 -348 -351 0
-371 345 369 390 0
-371 345 369 348 0
-371 345 369 351 0
-371 345 390 348 0
-371 345 390 351 0
-371 345 348 351 0
-371 369 390 348 0
-371 369 390 351 0
-371 369 348 351 0
-371 390 348 351 0
-372 -343 -367 -388 -346 -349 0
-372 343 367 0
-372 343 388 0
-372 343 346 0
-372 343 349 0
-372 367 388 0
-372 367 346 0
-372 367 349 0
-372 388 346 0
-372 388 349 0
-372 346 349 0
-373 -374 0
-373 -375 0
-374 -375 0
-376 -377 0
-376 -378 0
-377 -378 0
-376 -353 -374 -392 0
-376 -353 -374 -356 0
-376 -353 -374 -395 0
-376 -353 -374 -359 0
-376 -353 -374 -380 0
-376 -353 -374 -398 0
-376 -353 -392 -356 0
-376 -353 -392 -395 0
-376 -353 -392 -359 0
-376 -353 -392 -380 0
-376 -353 -392 -398 0
-376 -353 -356 -395 0
-376 -353 -356 -359 0
-376 -353 -356 -380 0
-376 -353 -356 -398 0
-376 -353 -395 -359 0
-376 -353 -395 -380 0
-376 -353 -395 -398 0
-376 -353 -359 -380 0
-376 -353 -359 -398 0
-376 -353 -380 -398 0
-376 -374 -392 -356 0
-376 -374 -392 -395 0
-376 -374 -392 -359 0
-376 -374 -392 -380 0
-376 -374 -392 -398 0
-376 -374 -356 -395 0
-376 -374 -356 -359 0
-376 -374 -356 -380 0
-376 -374 -356 -398 0
-376 -374 -395 -359 0
-376 -374 -395 -380 0
-376 -374 -395 -398 0
-376 -374 -359 -380 0
-376 -374 -359 -398 0
-376 -374 -380 -398 0
-376 -392 -356 -395 0
-376 -392 -356 -359 0
-376 -392 -356 -380 0
-376 -392 -356 -398 0
-376 -392 -395 -359 0
-376 -392 -395 -380 0
-376 -392 -395 -398 0
-376 -392 -359 -380 0
-376 -392 -359 -398 0
-376 -392 -380 -398 0
-376 -356 -395 -359 0
-376 -356 -395 -380 0
-376 -356 -395 -398 0
-376 -356 -359 -380 0
-376 -356 -359 -398 0
-376 -356 -380 -398 0
-376 -395 -359 -380 0
-376 -395 -359 -398 0
-376 -395 -380 -398 0
-376 -359 -380 -398 0
-376 353 374 392 356 395 359 380 0
-376 353 374 392 356 395 359 398 0
-376 353 374 392 356 395 380 398 0
-376 353 374 392 356 359 380 398 0
-376 353 374 392 395 359 380 398 0
-376 353 374 356 395 359 380 398 0
-376 353 392 356 395 359 380 398 0
-376 374 392 356 395 359 380 398 0
-377 -354 -375 -393 -357 0
-377 -354 -375 -393 -396 0
-377 -354 -375 -393 -360 0
-377 -354 -375 -393 -381 0
-377 -354 -375 -393 -399 0
-377 -354 -375 -357 -396 0
-377 -354 -375 -357 -360 0
-377 -354 -375 -357 -381 0
-377 -354 -375 -357 -399 0
-377 -354 -375 -396 -360 0
-377 -354 -375 -396 -381 0
-377 -354 -375 -396 -399 0
-377 -354 -375 -360 -381 0
-377 -354 -375 -360 -399 0
-377 -354 -375 -381 -399 0
-377 -354 -393 -357 -396 0
-377 -354 -393 -357 -360 0
-377 -354 -393 -357 -381 0
-377 -354 -393 -357 -399 0
-377 -354 -393 -396 -360 0
-377 -354 -393 -396 -381 0
-377 -354 -393 -396 -399 0
-377 -354 -393 -360 -381 0
-377 -354 -393 -360 -399 0
-377 -354 -393 -381 -399 0
-377 -354 -357 -396 -360 0
-377 -354 -357 -396 -381 0
-377 -354 -357 -396 -399 0
-377 -354 -357 -360 -381 0
-377 -354 -357 -360 -399 0
-377 -354 -357 -381 -399 0
-377 -354 -396 -360 -381 0
-377 -354 -396 -360 -399 0
-377 -354 -396 -381 -399 0
-377 -354 -360 -381 -399 0
-377 -375 -393 -357 -396 0
-377 -375 -393 -357 -360 0
-377 -375 -393 -357 -381 0
-377 -375 -393 -357 -399 0
-377 -375 -393 -396 -360 0
-377 -375 -393 -396 -381 0
-377 -375 -393 -396 -399 0
-377 -375 -393 -360 -381 0
-377 -375 -393 -360 -399 0
-377 -375 -393 -381 -399 0
-377 -375 -357 -396 -360 0
-377 -375 -357 -396 -381 0
-377 -375 -357 -396 -399 0
-377 -375 -357 -360 -381 0
-377 -375 -357 -360 -399 0
-377 -375 -357 -381 -399 0
-377 -375 -396 -360 -381 0
-377 -375 -396 -360 -399 0
-377 -375 -396 -381 -399 0
-377 -375 -360 -381 -399 0
-377 -393 -357 -396 -360 0
-377 -393 -357 -396 -381 0
-377 -393 -357 -396 -399 0
-377 -393 -357 -360 -381 0
-377 -393 -357 -360 -399 0
-377 -393 -357 -381 -399 0
-377 -393 -396 -360 -381 0
-377 -393 -396 -360 -399 0
-377 -393 -396 -381 -399 0
-377 -393 -360 -381 -399 0
-377 -357 -396 -360 -381 0
-377 -357 -396 -360 -399 0
-377 -357 -396 -381 -399 0
-377 -357 -360 -381 -399 0
-377 -396 -360 -381 -399 0
-377 354 375 393 357 396 360 0
-377 354 375 393 357 396 381 0
-377 354 375 393 357 396 399 0
-377 354 375 393 357 360 381 0
-377 354 375 393 357 360 399 0
-377 354 375 393 357 381 399 0
-377 354 375 393 396 360 381 0
-377 354 375 393 396 360 399 0
-377 354 375 393 396 381 399 0
-377 354 375 393 360 381 399 0
-377 354 375 357 396 360 381 0
-377 354 375 357 396 360 399 0
-377 354 375 357 396 381 399 0
-377 354 375 357 360 381 399 0
-377 354 375 396 360 381 399 0
-377 354 393 357 396 360 381 0
-377 354 393 357 396 360 399 0
-377 354 393 357 396 381 399 0
-377 354 393 357 360 381 399 0
-377 354 393 396 360 381 399 0
-377 354 357 396 360 381 399 0
-377 375 393 357 396 360 381 0
-377 375 393 357 396 360 399 0
-377 375 393 357 396 381 399 0
-377 375 393 357 360 381 399 0
-377 375 393 396 360 381 399 0
-377 375 357 396 360 381 399 0
-377 393 357 396 360 381 399 0
-378 -352 -373 -391 -355 -394 0
-378 -352 -373 -391 -355 -358 0
-378 -352 -373 -391 -355 -379 0
-378 -352 -373 -391 -355 -397 0
-378 -352 -373 -391 -394 -358 0
-378 -352 -373 -391 -394 -379 0
-378 -352 -373 -391 -394 -397 0
-378 -352 -373 -391 -358 -379 0
-378 -352 -373 -391 -358 -397 0
-378 -352 -373 -391 -379 -397 0
-378 -352 -373 -355 -394 -358 0
-378 -352 -373 -355 -394 -379 0
-378 -352 -373 -355 -394 -397 0
-378 -352 -373 -355 -358 -379 0
-378 -352 -373 -355 -358 -397 0
-378 -352 -373 -355 -379 -397 0
-378 -352 -373 -394 -358 -379 0
-378 -352 -373 -394 -358 -397 0
-378 -352 -373 -394 -379 -397 0
-378 -352 -373 -358 -379 -397 0
-378 -352 -391 -355 -394 -358 0
-378 -352 -391 -355 -394 -379 0
-378 -352 -391 -355 -394 -397 0
-378 -352 -391 -355 -358 -379 0
-378 -352 -391 -355 -358 -397 0
-378 -352 -391 -355 -379 -397 0
-378 -352 -391 -394 -358 -379 0
-378 -352 -391 -394 -358 -397 0
-378 -352 -391 -394 -379 -397 0
-378 -352 -391 -358 -379 -397 0
-378 -352 -355 -394 -358 -379 0
-378 -352 -355 -394 -358 -397 0
-378 -352 -355 -394 -379 -397 0
-378 -352 -355 -358 -379 -397 0
-378 -352 -394 -358 -379 -397 0
-378 -373 -391 -355 -394 -358 0
-378 -373 -391 -355 -394 -379 0
-378 -373 -391 -355 -394 -397 0
-378 -373 -391 -355 -358 -379 0
-378 -373 -391 -355 -358 -397 0
-378 -373 -391 -355 -379 -397 0
-378 -373 -391 -394 -358 -379 0
-378 -373 -391 -394 -358 -397 0
-378 -373 -391 -394 -379 -397 0
-378 -373 -391 -358 -379 -397 0
-378 -373 -355 -394 -358 -379 0
-378 -373 -355 -394 -358 -397 0
-378 -373 -355 -394 -379 -397 0
-378 -373 -355 -358 -379 -397 0
-378 -373 -394 -358 -379 -397 0
-378 -391 -355 -394 -358 -379 0
-378 -391 -355 -394 -358 -397 0
-378 -391 -355 -394 -379 -397 0
-378 -391 -355 -358 -379 -397 0
-378 -391 -394 -358 -379 -397 0
-378 -355 -394 -358 -379 -397 0
-378 352 373 391 355 394 0
-378 352 373 391 355 358 0
-378 352 373 391 355 379 0
-378 352 373 391 355 397 0
-378 352 373 391 394 358 0
-378 352 373 391 394 379 0
-378 352 373 391 394 397 0
-378 352 373 391 358 379 0
-378 352 373 391 358 397 0
-378 352 373 391 379 397 0
-378 352 373 355 394 358 0
-378 352 373 355 394 379 0
-378 352 373 355 394 397 0
-378 352 373 355 358 379 0
-378 352 373 355 358 397 0
-378 352 373 355 379 397 0
-378 352 373 394 358 379 0
-378 352 373 394 358 397 0
-378 352 373 394 379 397 0
-378 352 373 358 379 397 0
-378 352 391 355 394 358 0
-378 352 391 355 394 379 0
-378 352 391 355 394 397 0
-378 352 391 355 358 379 0
-378 352 391 355 358 397 0
-378 352 391 355 379 397 0
-378 352 391 394 358 379 0
-378 352 391 394 358 397 0
-378 352 391 394 379 397 0
-378 352 391 358 379 397 0
-378 352 355 394 358 379 0
-378 352 355 394 358 397 0
-378 352 355 394 379 397 0
-378 352 355 358 379 397 0
-378 352 394 358 379 397 0
-378 373 391 355 394 358 0
-378 373 391 355 394 379 0
-378 373 391 355 394 397 0
-378 373 391 355 358 379 0
-378 373 391 355 358 397 0
-378 373 391 355 379 397 0
-378 373 391 394 358 379 0
-378 373 391 394 358 397 0
-378 373 391 394 379 397 0
-378 373 391 358 379 397 0
-378 373 355 394 358 379 0
-378 373 355 394 358 397 0
-378 373 355 394 379 397 0
-378 373 355 358 379 397 0
-378 373 394 358 379 397 0
-378 391 355 394 358 379 0
-378 391 355 394 358 397 0
-378 391 355 394 379 397 0
-378 391 355 358 379 397 0
-378 391 394 358 379 397 0
-378 355 394 358 379 397 0
-379 -380 0
-379 -381 0
-380 -381 0
-379 -356 -377 -395 0
-379 -356 -377 -359 0
-379 -356 -377 -398 0
-379 -356 -377 -362 0
-379 -356 -377 -383 0
-379 -356 -377 -401 0
-379 -356 -395 -359 0
-379 -356 -395 -398 0
-379 -356 -395 -362 0
-379 -356 -395 -383 0
-379 -356 -395 -401 0
-379 -356 -359 -398 0
-379 -356 -359 -362 0
-379 -356 -359 -383 0
-379 -356 -359 -401 0
-379 -356 -398 -362 0
-379 -356 -398 -383 0
-379 -356 -398 -401 0
-379 -356 -362 -383 0
-379 -356 -362 -401 0
-379 -356 -383 -401 0
-379 -377 -395 -359 0
-379 -377 -395 -398 0
-379 -377 -395 -362 0
-379 -377 -395 -383 0
-379 -377 -395 -401 0
-379 -377 -359 -398 0
-379 -377 -359 -362 0
-379 -377 -359 -383 0
-379 -377 -359 -401 0
-379 -377 -398 -362 0
-379 -377 -398 -383 0
-379 -377 -398 -401 0
-379 -377 -362 -383 0
-379 -377 -362 -401 0
-379 -377 -383 -401 0
-379 -395 -359 -398 0
-379 -395 -359 -362 0
-379 -395 -359 -383 0
-379 -395 -359 -401 0
-379 -395 -398 -362 0
-379 -395 -398 -383 0
-379 -395 -398 -401 0
-379 -395 -362 -383 0
-379 -395 -362 -401 0
-379 -395 -383 -401 0
-379 -359 -398 -362 0
-379 -359 -398 -383 0
-379 -359 -398 -401 0
-379 -359 -362 -383 0
-379 -359 -362 -401 0
-379 -359 -383 -401 0
-379 -398 -362 -383 0
-379 -398 -362 -401 0
-379 -398 -383 -401 0
-379 -362 -383 -401 0
-379 356 377 395 359 398 362 383 0
-379 356 377 395 359 398 362 401 0
-379 356 377 395 359 398 383 401 0
-379 356 377 395 359 362 383 401 0
-379 356 377 395 398 362 383 401 0
-379 356 377 359 398 362 383 401 0
-379 356 395 359 398 362 383 401 0
-379 377 395 359 398 362 383 401 0
-380 -357 -378 -396 -360 0
-380 -357 -378 -396 -399 0
-380 -357 -378 -396 -363 0
-380 -357 -378 -396 -384 0
-380 -357 -378 -396 -402 0
-380 -357 -378 -360 -399 0
-380 -357 -378 -360 -363 0
-380 -357 -378 -360 -384 0
-380 -357 -378 -360 -402 0
-380 -357 -378 -399 -363 0
-380 -357 -378 -399 -384 0
-380 -357 -378 -399 -402 0
-380 -357 -378 -363 -384 0
-380 -357 -378 -363 -402 0
-380 -357 -378 -384 -402 0
-380 -357 -396 -360 -399 0
-380 -357 -396 -360 -363 0
-380 -357 -396 -360 -384 0
-380 -357 -396 -360 -402 0
-380 -357 -396 -399 -363 0
-380 -357 -396 -399 -384 0
-380 -357 -396 -399 -402 0
-380 -357 -396 -363 -384 0
-380 -357 -396 -363 -402 0
-380 -357 -396 -384 -402 0
-380 -357 -360 -399 -363 0
-380 -357 -360 -399 -384 0
-380 -357 -360 -399 -402 0
-380 -357 -360 -363 -384 0
-380 -357 -360 -363 -402 0
-380 -357 -360 -384 -402 0
-380 -357 -399 -363 -384 0
-380 -357 -399 -363 -402 0
-380 -357 -399 -384 -402 0
-380 -357 -363 -384 -402 0
-380 -378 -396 -360 -399 0
-380 -378 -396 -360 -363 0
-380 -378 -396 -360 -384 0
-380 -378 -396 -360 -402 0
-380 -378 -396 -399 -363 0
-380 -378 -396 -399 -384 0
-380 -378 -396 -399 -402 0
-380 -378 -396 -363 -384 0
-380 -378 -396 -363 -402 0
-380 -378 -396 -384 -402 0
-380 -378 -360 -399 -363 0
-380 -378 -360 -399 -384 0
-380 -378 -360 -399 -402 0
-380 -378 -360 -363 -384 0
-380 -378 -360 -363 -402 0
-380 -378 -360 -384 -402 0
-380 -378 -399 -363 -384 0
-380 -378 -399 -363 -402 0
-380 -378 -399 -384 -402 0
-380 -378 -363 -384 -402 0
-380 -396 -360 -399 -363 0
-380 -396 -360 -399 -384 0
-380 -396 -360 -399 -402 0
-380 -396 -360 -363 -384 0
-380 -396 -360 -363 -402 0
-380 -396 -360 -384 -402 0
-380 -396 -399 -363 -384 0
-380 -396 -399 -363 -402 0
-380 -396 -399 -384 -402 0
-380 -396 -363 -384 -402 0
-380 -360 -399 -363 -384 0
-380 -360 -399 -363 -402 0
-380 -360 -399 -384 -402 0
-380 -360 -363 -384 -402 0
-380 -399 -363 -384 -402 0
-380 357 378 396 360 399 363 0
-380 357 378 396 360 399 384 0
-380 357 378 396 360 399 402 0
-380 357 378 396 360 363 384 0
-380 357 378 396 360 363 402 0
-380 357 378 396 360 384 402 0
-380 357 378 396 399 363 384 0
-380 357 378 396 399 363 402 0
-380 357 378 396 399 384 402 0
-380 357 378 396 363 384 402 0
-380 357 378 360 399 363 384 0
-380 357 378 360 399 363 402 0
-380 357 378 360 399 384 402 0
-380 357 378 360 363 384 402 0
-380 357 378 399 363 384 402 0
-380 357 396 360 399 363 384 0
-380 357 396 360 399 363 402 0
-380 357 396 360 399 384 402 0
-380 357 396 360 363 384 402 0
-380 357 396 399 363 384 402 0
-380 357 360 399 363 384 402 0
-380 378 396 360 399 363 384 0
-380 378 396 360 399 363 402 0
-380 378 396 360 399 384 402 0
-380 378 396 360 363 384 402 0
-380 378 396 399 363 384 402 0
-380 378 360 399 363 384 402 0
-380 396 360 399 363 384 402 0
-381 -355 -376 -394 -358 -397 0
-381 -355 -376 -394 -358 -361 0
-381 -355 -376 -394 -358 -382 0
-381 -355 -376 -394 -358 -400 0
-381 -355 -376 -394 -397 -361 0
-381 -355 -376 -394 -397 -382 0
-381 -355 -376 -394 -397 -400 0
-381 -355 -376 -394 -361 -382 0
-381 -355 -376 -394 -361 -400 0
-381 -355 -376 -394 -382 -400 0
-381 -355 -376 -358 -397 -361 0
-381 -355 -376 -358 -397 -382 0
-381 -355 -376 -358 -397 -400 0
-381 -355 -376 -358 -361 -382 0
-381 -355 -376 -358 -361 -400 0
-381 -355 -376 -358 -382 -400 0
-381 -355 -376 -397 -361 -382 0
-381 -355 -376 -397 -361 -400 0
-381 -355 -376 -397 -382 -400 0
-381 -355 -376 -361 -382 -400 0
-381 -355 -394 -358 -397 -361 0
-381 -355 -394 -358 -397 -382 0
-381 -355 -394 -358 -397 -400 0
-381 -355 -394 -358 -361 -382 0
-381 -355 -394 -358 -361 -400 0
-381 -355 -394 -358 -382 -400 0
-381 -355 -394 -397 -361 -382 0
-381 -355 -394 -397 -361 -400 0
-381 -355 -394 -397 -382 -400 0
-381 -355 -394 -361 -382 -400 0
-381 -355 -358 -397 -361 -382 0
-381 -355 -358 -397 -361 -400 0
-381 -355 -358 -397 -382 -400 0
-381 -355 -358 -361 -382 -400 0
-381 -355 -397 -361 -382 -400 0
-381 -376 -394 -358 -397 -361 0
-381 -376 -394 -358 -397 -382 0
-381 -376 -394 -358 -397 -400 0
-381 -376 -394 -358 -361 -382 0
-381 -376 -394 -358 -361 -400 0
-381 -376 -394 -358 -382 -400 0
-381 -376 -394 -397 -361 -382 0
-381 -376 -394 -397 -361 -400 0
-381 -376 -394 -397 -382 -400 0
-381 -376 -394 -361 -382 -400 0
-381 -376 -358 -397 -361 -382 0
-381 -376 -358 -397 -361 -400 0
-381 -376 -358 -397 -382 -400 0
-381 -376 -358 -361 -382 -400 0
-381 -376 -397 -361 -382 -400 0
-381 -394 -358 -397 -361 -382 0
-381 -394 -358 -397 -361 -400 0
-381 -394 -358 -397 -382 -400 0
-381 -394 -358 -361 -382 -400 0
-381 -394 -397 -361 -382 -400 0
-381 -358 -397 -361 -382 -400 0
-381 355 376 394 358 397 0
-381 355 376 394 358 361 0
-381 355 376 394 358 382 0
-381 355 376 394 358 400 0
-381 355 376 394 397 361 0
-381 355 376 394 397 382 0
-381 355 376 394 397 400 0
-381 355 376 394 361 382 0
-381 355 376 394 361 400 0
-381 355 376 394 382 400 0
-381 355 376 358 397 361 0
-381 355 376 358 397 382 0
-381 355 376 358 397 400 0
-381 355 376 358 361 382 0
-381 355 376 358 361 400 0
-381 355 376 358 382 400 0
-381 355 376 397 361 382 0
-381 355 376 397 361 400 0
-381 355 376 397 382 400 0
-381 355 376 361 382 400 0
-381 355 394 358 397 361 0
-381 355 394 358 397 382 0
-381 355 394 358 397 400 0
-381 355 394 358 361 382 0
-381 355 394 358 361 400 0
-381 355 394 358 382 400 0
-381 355 394 397 361 382 0
-381 355 394 397 361 400 0
-381 355 394 397 382 400 0
-381 355 394 361 382 400 0
-381 355 358 397 361 382 0
-381 355 358 397 361 400 0
-381 355 358 397 382 400 0
-381 355 358 361 382 400 0
-381 355 397 361 382 400 0
-381 376 394 358 397 361 0
-381 376 394 358 397 382 0
-381 376 394 358 397 400 0
-381 376 394 358 361 382 0
-381 376 394 358 361 400 0
-381 376 394 358 382 400 0
-381 376 394 397 361 382 0
-381 376 394 397 361 400 0
-381 376 394 397 382 400 0
-381 376 394 361 382 400 0
-381 376 358 397 361 382 0
-381 376 358 397 361 400 0
-381 376 358 397 382 400 0
-381 376 358 361 382 400 0
-381 376 397 361 382 400 0
-381 394 358 397 361 382 0
-381 394 358 397 361 400 0
-381 394 358 397 382 400 0
-381 394 358 361 382 400 0
-381 394 397 361 382 400 0
-381 358 397 361 382 400 0
-382 -383 0
-382 -384 0
-383 -384 0
-382 -359 -380 -398 0
-382 -359 -380 -362 0
-382 -359 -380 -401 0
-382 -359 -380 -365 0
-382 -359 -380 -386 0
-382 -359 -380 -404 0
-382 -359 -398 -362 0
-382 -359 -398 -401 0
-382 -359 -398 -365 0
-382 -359 -398 -386 0
-382 -359 -398 -404 0
-382 -359 -362 -401 0
-382 -359 -362 -365 0
-382 -359 -362 -386 0
-382 -359 -362 -404 0
-382 -359 -401 -365 0
-382 -359 -401 -386 0
-382 -359 -401 -404 0
-382 -359 -365 -386 0
-382 -359 -365 -404 0
-382 -359 -386 -404 0
-382 -380 -398 -362 0
-382 -380 -398 -401 0
-382 -380 -398 -365 0
-382 -380 -398 -386 0
-382 -380 -398 -404 0
-382 -380 -362 -401 0
-382 -380 -362 -365 0
-382 -380 -362 -386 0
-382 -380 -362 -404 0
-382 -380 -401 -365 0
-382 -380 -401 -386 0
-382 -380 -401 -404 0
-382 -380 -365 -386 0
-382 -380 -365 -404 0
-382 -380 -386 -404 0
-382 -398 -362 -401 0
-382 -398 -362 -365 0
-382 -398 -362 -386 0
-382 -398 -362 -404 0
-382 -398 -401 -365 0
-382 -398 -401 -386 0
-382 -398 -401 -404 0
-382 -398 -365 -386 0
-382 -398 -365 -404 0
-382 -398 -386 -404 0
-382 -362 -401 -365 0
-382 -362 -401 -386 0
-382 -362 -401 -404 0
-382 -362 -365 -386 0
-382 -362 -365 -404 0
-382 -362 -386 -404 0
-382 -401 -365 -386 0
-382 -401 -365 -404 0
-382 -401 -386 -404 0
-382 -365 -386 -404 0
-382 359 380 398 362 401 365 386 0
-382 359 380 398 362 401 365 404 0
-382 359 380 398 362 401 386 404 0
-382 359 380 398 362 365 386 404 0
-382 359 380 398 401 365 386 404 0
-382 359 380 362 401 365 386 404 0
-382 359 398 362 401 365 386 404 0
-382 380 398 362 401 365 386 404 0
-383 -360 -381 -399 -363 0
-383 -360 -381 -399 -402 0
-383 -360 -381 -399 -366 0
-383 -360 -381 -399 -387 0
-383 -360 -381 -399 -405 0
-383 -360 -381 -363 -402 0
-383 -360 -381 -363 -366 0
-383 -360 -381 -363 -387 0
-383 -360 -381 -363 -405 0
-383 -360 -381 -402 -366 0
-383 -360 -381 -402 -387 0
-383 -360 -381 -402 -405 0
-383 -360 -381 -366 -387 0
-383 -360 -381 -366 -405 0
-383 -360 -381 -387 -405 0
-383 -360 -399 -363 -402 0
-383 -360 -399 -363 -366 0
-383 -360 -399 -363 -387 0
-383 -360 -399 -363 -405 0
-383 -360 -399 -402 -366 0
-383 -360 -399 -402 -387 0
-383 -360 -399 -402 -405 0
-383 -360 -399 -366 -387 0
-383 -360 -399 -366 -405 0
-383 -360 -399 -387 -405 0
-383 -360 -363 -402 -366 0
-383 -360 -363 -402 -387 0
-383 -360 -363 -402 -405 0
-383 -360 -363 -366 -387 0
-383 -360 -363 -366 -405 0
-383 -360 -363 -387 -405 0
-383 -360 -402 -366 -387 0
-383 -360 -402 -366 -405 0
-383 -360 -402 -387 -405 0
-383 -360 -366 -387 -405 0
-383 -381 -399 -363 -402 0
-383 -381 -399 -363 -366 0
-383 -381 -399 -363 -387 0
-383 -381 -399 -363 -405 0
-383 -381 -399 -402 -366 0
-383 -381 -399 -402 -387 0
-383 -381 -399 -402 -405 0
-383 -381 -399 -366 -387 0
-383 -381 -399 -366 -405 0
-383 -381 -399 -387 -405 0
-383 -381 -363 -402 -366 0
-383 -381 -363 -402 -387 0
-383 -381 -363 -402 -405 0
-383 -381 -363 -366 -387 0
-383 -381 -363 -366 -405 0
-383 -381 -363 -387 -405 0
-383 -381 -402 -366 -387 0
-383 -381 -402 -366 -405 0
-383 -381 -402 -387 -405 0
-383 -381 -366 -387 -405 0
-383 -399 -363 -402 -366 0
-383 -399 -363 -402 -387 0
-383 -399 -363 -402 -405 0
-383 -399 -363 -366 -387 0
-383 -399 -363 -366 -405 0
-383 -399 -363 -387 -405 0
-383 -399 -402 -366 -387 0
-383 -399 -402 -366 -405 0
-383 -399 -402 -387 -405 0
-383 -399 -366 -387 -405 0
-383 -363 -402 -366 -387 0
-383 -363 -402 -366 -405 0
-383 -363 -402 -387 -405 0
-383 -363 -366 -387 -405 0
-383 -402 -366 -387 -405 0
-383 360 381 399 363 402 366 0
-383 360 381 399 363 402 387 0
-383 360 381 399 363 402 405 0
-383 360 381 399 363 366 387 0
-383 360 381 399 363 366 405 0
-383 360 381 399 363 387 405 0
-383 360 381 399 402 366 387 0
-383 360 381 399 402 366 405 0
-383 360 381 399 402 387 405 0
-383 360 381 399 366 387 405 0
-383 360 381 363 402 366 387 0
-383 360 381 363 402 366 405 0
-383 360 381 363 402 387 405 0
-383 360 381 363 366 387 405 0
-383 360 381 402 366 387 405 0
-383 360 399 363 402 366 387 0
-383 360 399 363 402 366 405 0
-383 360 399 363 402 387 405 0
-383 360 399 363 366 387 405 0
-383 360 399 402 366 387 405 0
-383 360 363 402 366 387 405 0
-383 381 399 363 402 366 387 0
-383 381 399 363 402 366 405 0
-383 381 399 363 402 387 405 0
-383 381 399 363 366 387 405 0
-383 381 399 402 366 387 405 0
-383 381 363 402 366 387 405 0
-383 399 363 402 366 387 405 0
-384 -358 -379 -397 -361 -400 0
-384 -358 -379 -397 -361 -364 0
-384 -358 -379 -397 -361 -385 0
-384 -358 -379 -397 -361 -403 0
-384 -358 -379 -397 -400 -364 0
-384 -358 -379 -397 -400 -385 0
-384 -358 -379 -397 -400 -403 0
-384 -358 -379 -397 -364 -385 0
-384 -358 -379 -397 -364 -403 0
-384 -358 -379 -397 -385 -403 0
-384 -358 -379 -361 -400 -364 0
-384 -358 -379 -361 -400 -385 0
-384 -358 -379 -361 -400 -403 0
-384 -358 -379 -361 -364 -385 0
-384 -358 -379 -361 -364 -403 0
-384 -358 -379 -361 -385 -403 0
-384 -358 -379 -400 -364 -385 0
-384 -358 -379 -400 -364 -403 0
-384 -358 -379 -400 -385 -403 0
-384 -358 -379 -364 -385 -403 0
-384 -358 -397 -361 -400 -364 0
-384 -358 -397 -361 -400 -385 0
-384 -358 -397 -361 -400 -403 0
-384 -358 -397 -361 -364 -385 0
-384 -358 -397 -361 -364 -403 0
-384 -358 -397 -361 -385 -403 0
-384 -358 -397 -400 -364 -385 0
-384 -358 -397 -400 -364 -403 0
-384 -358 -397 -400 -385 -403 0
-384 -358 -397 -364 -385 -403 0
-384 -358 -361 -400 -364 -385 0
-384 -358 -361 -400 -364 -403 0
-384 -358 -361 -400 -385 -403 0
-384 -358 -361 -364 -385 -403 0
-384 -358 -400 -364 -385 -403 0
-384 -379 -397 -361 -400 -364 0
-384 -379 -397 -361 -400 -385 0
-384 -379 -397 -361 -400 -403 0
-384 -379 -397 -361 -364 -385 0
-384 -379 -397 -361 -364 -403 0
-384 -379 -397 -361 -385 -403 0
-384 -379 -397 -400 -364 -385 0
-384 -379 -397 -400 -364 -403 0
-384 -379 -397 -400 -385 -403 0
-384 -379 -397 -364 -385 -403 0
-384 -379 -361 -400 -364 -385 0
-384 -379 -361 -400 -364 -403 0
-384 -379 -361 -400 -385 -403 0
-384 -379 -361 -364 -385 -403 0
-384 -379 -400 -364 -385 -403 0
-384 -397 -361 -400 -364 -385 0
-384 -397 -361 -400 -364 -403 0
-384 -397 -361 -400 -385 -403 0
-384 -397 -361 -364 -385 -403 0
-384 -397 -400 -364 -385 -403 0
-384 -361 -400 -364 -385 -403 0
-384 358 379 397 361 400 0
-384 358 379 397 361 364 0
-384 358 379 397 361 385 0
-384 358 379 397 361 403 0
-384 358 379 397 400 364 0
-384 358 379 397 400 385 0
-384 358 379 397 400 403 0
-384 358 379 397 364 385 0
-384 358 379 397 364 403 0
-384 358 379 397 385 403 0
-384 358 379 361 400 364 0
-384 358 379 361 400 385 0
-384 358 379 361 400 403 0
-384 358 379 361 364 385 0
-384 358 379 361 364 403 0
-384 358 379 361 385 403 0
-384 358 379 400 364 385 0
-384 358 379 400 364 403 0
-384 358 379 400 385 403 0
-384 358 379 364 385 403 0
-384 358 397 361 400 364 0
-384 358 397 361 400 385 0
-384 358 397 361 400 403 0
-384 358 397 361 364 385 0
-384 358 397 361 364 403 0
-384 358 397 361 385 403 0
-384 358 397 400 364 385 0
-384 358 397 400 364 403 0
-384 358 397 400 385 403 0
-384 358 397 364 385 403 0
-384 358 361 400 364 385 0
-384 358 361 400 364 403 0
-384 358 361 400 385 403 0
-384 358 361 364 385 403 0
-384 358 400 364 385 403 0
-384 379 397 361 400 364 0
-384 379 397 361 400 385 0
-384 379 397 361 400 403 0
-384 379 397 361 364 385 0
-384 379 397 361 364 403 0
-384 379 397 361 385 403 0
-384 379 397 400 364 385 0
-384 379 397 400 364 403 0
-384 379 397 400 385 403 0
-384 379 397 364 385 403 0
-384 379 361 400 364 385 0
-384 379 361 400 364 403 0
-384 379 361 400 385 403 0
-384 379 361 364 385 403 0
-384 379 400 364 385 403 0
-384 397 361 400 364 385 0
-384 397 361 400 364 403 0
-384 397 361 400 385 403 0
-384 397 361 364 385 403 0
-384 397 400 364 385 403 0
-384 361 400 364 385 403 0
-385 -386 0
-385 -387 0
-386 -387 0
-385 -362 -383 -401 0
-385 -362 -383 -365 0
-385 -362 -383 -404 0
-385 -362 -383 -368 0
-385 -362 -383 -389 0
-385 -362 -401 -365 0
-385 -362 -401 -404 0
-385 -362 -401 -368 0
-385 -362 -401 -389 0
-385 -362 -365 -404 0
-385 -362 -365 -368 0
-385 -362 -365 -389 0
-385 -362 -404 -368 0
-385 -362 -404 -389 0
-385 -362 -368 -389 0
-385 -383 -401 -365 0
-385 -383 -401 -404 0
-385 -383 -401 -368 0
-385 -383 -401 -389 0
-385 -383 -365 -404 0
-385 -383 -365 -368 0
-385 -383 -365 -389 0
-385 -383 -404 -368 0
-385 -383 -404 -389 0
-385 -383 -368 -389 0
-385 -401 -365 -404 0
-385 -401 -365 -368 0
-385 -401 -365 -389 0
-385 -401 -404 -368 0
-385 -401 -404 -389 0
-385 -401 -368 -389 0
-385 -365 -404 -368 0
-385 -365 -404 -389 0
-385 -365 -368 -389 0
-385 -404 -368 -389 0
-385 362 383 401 365 404 368 0
-385 362 383 401 365 404 389 0
-385 362 383 401 365 368 389 0
-385 362 383 401 404 368 389 0
-385 362 383 365 404 368 389 0
-385 362 401 365 404 368 389 0
-385 383 401 365 404 368 389 0
-386 -363 -384 -402 -366 0
-386 -363 -384 -402 -405 0
-386 -363 -384 -402 -369 0
-386 -363 -384 -402 -390 0
-386 -363 -384 -366 -405 0
-386 -363 -384 -366 -369 0
-386 -363 -384 -366 -390 0
-386 -363 -384 -405 -369 0
-386 -363 -384 -405 -390 0
-386 -363 -384 -369 -390 0
-386 -363 -402 -366 -405 0
-386 -363 -402 -366 -369 0
-386 -363 -402 -366 -390 0
-386 -363 -402 -405 -369 0
-386 -363 -402 -405 -390 0
-386 -363 -402 -369 -390 0
-386 -363 -366 -405 -369 0
-386 -363 -366 -405 -390 0
-386 -363 -366 -369 -390 0
-386 -363 -405 -369 -390 0
-386 -384 -402 -366 -405 0
-386 -384 -402 -366 -369 0
-386 -384 -402 -366 -390 0
-386 -384 -402 -405 -369 0
-386 -384 -402 -405 -390 0
-386 -384 -402 -369 -390 0
-386 -384 -366 -405 -369 0
-386 -384 -366 -405 -390 0
-386 -384 -366 -369 -390 0
-386 -384 -405 -369 -390 0
-386 -402 -366 -405 -369 0
-386 -402 -366 -405 -390 0
-386 -402 -366 -369 -390 0
-386 -402 -405 -369 -390 0
-386 -366 -405 -369 -390 0
-386 363 384 402 366 405 0
-386 363 384 402 366 369 0
-386 363 384 402 366 390 0
-386 363 384 402 405 369 0
-386 363 384 402 405 390 0
-386 363 384 402 369 390 0
-386 363 384 366 405 369 0
-386 363 384 366 405 390 0
-386 363 384 366 369 390 0
-386 363 384 405 369 390 0
-386 363 402 366 405 369 0
-386 363 402 366 405 390 0
-386 363 402 366 369 390 0
-386 363 402 405 369 390 0
-386 363 366 405 369 390 0
-386 384 402 366 405 369 0
-386 384 402 366 405 390 0
-386 384 402 366 369 390 0
-386 384 402 405 369 390 0
-386 384 366 405 369 390 0
-386 402 366 405 369 390 0
-387 -361 -382 -400 -364 -403 0
-387 -361 -382 -400 -364 -367 0
-387 -361 -382 -400 -364 -388 0
-387 -361 -382 -400 -403 -367 0
-387 -361 -382 -400 -403 -388 0
-387 -361 -382 -400 -367 -388 0
-387 -361 -382 -364 -403 -367 0
-387 -361 -382 -364 -403 -388 0
-387 -361 -382 -364 -367 -388 0
-387 -361 -382 -403 -367 -388 0
-387 -361 -400 -364 -403 -367 0
-387 -361 -400 -364 -403 -388 0
-387 -361 -400 -364 -367 -388 0
-387 -361 -400 -403 -367 -388 0
-387 -361 -364 -403 -367 -388 0
-387 -382 -400 -364 -403 -367 0
-387 -382 -400 -364 -403 -388 0
-387 -382 -400 -364 -367 -388 0
-387 -382 -400 -403 -367 -388 0
-387 -382 -364 -403 -367 -388 0
-387 -400 -364 -403 -367 -388 0
-387 361 382 400 364 0
-387 361 382 400 403 0
-387 361 382 400 367 0
-387 361 382 400 388 0
-387 361 382 364 403 0
-387 361 382 364 367 0
-387 361 382 364 388 0
-387 361 382 403 367 0
-387 361 382 403 388 0
-387 361 382 367 388 0
-387 361 400 364 403 0
-387 361 400 364 367 0
-387 361 400 364 388 0
-387 361 400 403 367 0
-387 361 400 403 388 0
-387 361 400 367 388 0
-387 361 364 403 367 0
-387 361 364 403 388 0
-387 361 364 367 388 0
-387 361 403 367 388 0
-387 382 400 364 403 0
-387 382 400 364 367 0
-387 382 400 364 388 0
-387 382 400 403 367 0
-387 382 400 403 388 0
-387 382 400 367 388 0
-387 382 364 403 367 0
-387 382 364 403 388 0
-387 382 364 367 388 0
-387 382 403 367 388 0
-387 400 364 403 367 0
-387 400 364 403 388 0
-387 400 364 367 388 0
-387 400 403 367 388 0
-387 364 403 367 388 0
-388 -389 0
-388 -390 0
-389 -390 0
-388 -365 -386 -404 0
-388 -365 -386 -368 0
-388 -365 -386 -371 0
-388 -365 -404 -368 0
-388 -365 -404 -371 0
-388 -365 -368 -371 0
-388 -386 -404 -368 0
-388 -386 -404 -371 0
-388 -386 -368 -371 0
-388 -404 -368 -371 0
-388 365 386 404 368 0
-388 365 386 404 371 0
-388 365 386 368 371 0
-388 365 404 368 371 0
-388 386 404 368 371 0
-389 -366 -387 -405 -369 0
-389 -366 -387 -405 -372 0
-389 -366 -387 -369 -372 0
-389 -366 -405 -369 -372 0
-389 -387 -405 -369 -372 0
-389 366 387 405 0
-389 366 387 369 0
-389 366 387 372 0
-389 366 405 369 0
-389 366 405 372 0
-389 366 369 372 0
-389 387 405 369 0
-389 387 405 372 0
-389 387 369 372 0
-389 405 369 372 0
-390 -364 -385 -403 -367 -370 0
-390 364 385 0
-390 364 403 0
-390 364 367 0
-390 364 370 0
-390 385 403 0
-390 385 367 0
-390 385 370 0
-390 403 367 0
-390 403 370 0
-390 367 370 0
-391 -392 0
-391 -393 0
-392 -393 0
-394 -395 0
-394 -396 0
-395 -396 0
-394 -374 -392 -407 0
-394 -374 -392 -377 0
-394 -374 -392 -410 0
-394 -374 -392 -380 0
-394 -374 -392 -398 0
-394 -374 -392 -413 0
-394 -374 -407 -377 0
-394 -374 -407 -410 0
-394 -374 -407 -380 0
-394 -374 -407 -398 0
-394 -374 -407 -413 0
-394 -374 -377 -410 0
-394 -374 -377 -380 0
-394 -374 -377 -398 0
-394 -374 -377 -413 0
-394 -374 -410 -380 0
-394 -374 -410 -398 0
-394 -374 -410 -413 0
-394 -374 -380 -398 0
-394 -374 -380 -413 0
-394 -374 -398 -413 0
-394 -392 -407 -377 0
-394 -392 -407 -410 0
-394 -392 -407 -380 0
-394 -392 -407 -398 0
-394 -392 -407 -413 0
-394 -392 -377 -410 0
-394 -392 -377 -380 0
-394 -392 -377 -398 0
-394 -392 -377 -413 0
-394 -392 -410 -380 0
-394 -392 -410 -398 0
-394 -392 -410 -413 0
-394 -392 -380 -398 0
-394 -392 -380 -413 0
-394 -392 -398 -413 0
-394 -407 -377 -410 0
-394 -407 -377 -380 0
-394 -407 -377 -398 0
-394 -407 -377 -413 0
-394 -407 -410 -380 0
-394 -407 -410 -398 0
-394 -407 -410 -413 0
-394 -407 -380 -398 0
-394 -407 -380 -413 0
-394 -407 -398 -413 0
-394 -377 -410 -380 0
-394 -377 -410 -398 0
-394 -377 -410 -413 0
-394 -377 -380 -398 0
-394 -377 -380 -413 0
-394 -377 -398 -413 0
-394 -410 -380 -398 0
-394 -410 -380 -413 0
-394 -410 -398 -413 0
-394 -380 -398 -413 0
-394 374 392 407 377 410 380 398 0
-394 374 392 407 377 410 380 413 0
-394 374 392 407 377 410 398 413 0
-394 374 392 407 377 380 398 413 0
-394 374 392 407 410 380 398 413 0
-394 374 392 377 410 380 398 413 0
-394 374 407 377 410 380 398 413 0
-394 392 407 377 410 380 398 413 0
-395 -375 -393 -408 -378 0
-395 -375 -393 -408 -411 0
-395 -375 -393 -408 -381 0
-395 -375 -393 -408 -399 0
-395 -375 -393 -408 -414 0
-395 -375 -393 -378 -411 0
-395 -375 -393 -378 -381 0
-395 -375 -393 -378 -399 0
-395 -375 -393 -378 -414 0
-395 -375 -393 -411 -381 0
-395 -375 -393 -411 -399 0
-395 -375 -393 -411 -414 0
-395 -375 -393 -381 -399 0
-395 -375 -393 -381 -414 0
-395 -375 -393 -399 -414 0
-395 -375 -408 -378 -411 0
-395 -375 -408 -378 -381 0
-395 -375 -408 -378 -399 0
-395 -375 -408 -378 -414 0
-395 -375 -408 -411 -381 0
-395 -375 -408 -411 -399 0
-395 -375 -408 -411 -414 0
-395 -375 -408 -381 -399 0
-395 -375 -408 -381 -414 0
-395 -375 -408 -399 -414 0
-395 -375 -378 -411 -381 0
-395 -375 -378 -411 -399 0
-395 -375 -378 -411 -414 0
-395 -375 -378 -381 -399 0
-395 -375 -378 -381 -414 0
-395 -375 -378 -399 -414 0
-395 -375 -411 -381 -399 0
-395 -375 -411 -381 -414 0
-395 -375 -411 -399 -414 0
-395 -375 -381 -399 -414 0
-395 -393 -408 -378 -411 0
-395 -393 -408 -378 -381 0
-395 -393 -408 -378 -399 0
-395 -393 -408 -378 -414 0
-395 -393 -408 -411 -381 0
-395 -393 -408 -411 -399 0
-395 -393 -408 -411 -414 0
-395 -393 -408 -381 -399 0
-395 -393 -408 -381 -414 0
-395 -393 -408 -399 -414 0
-395 -393 -378 -411 -381 0
-395 -393 -378 -411 -399 0
-395 -393 -378 -411 -414 0
-395 -393 -378 -381 -399 0
-395 -393 -378 -381 -414 0
-395 -393 -378 -399 -414 0
-395 -393 -411 -381 -399 0
-395 -393 -411 -381 -414 0
-395 -393 -411 -399 -414 0
-395 -393 -381 -399 -414 0
-395 -408 -378 -411 -381 0
-395 -408 -378 -411 -399 0
-395 -408 -378 -411 -414 0
-395 -408 -378 -381 -399 0
-395 -408 -378 -381 -414 0
-395 -408 -378 -399 -414 0
-395 -408 -411 -381 -399 0
-395 -408 -411 -381 -414 0
-395 -408 -411 -399 -414 0
-395 -408 -381 -399 -414 0
-395 -378 -411 -381 -399 0
-395 -378 -411 -381 -414 0
-395 -378 -411 -399 -414 0
-395 -378 -381 -399 -414 0
-395 -411 -381 -399 -414 0
-395 375 393 408 378 411 381 0
-395 375 393 408 378 411 399 0
-395 375 393 408 378 411 414 0
-395 375 393 408 378 381 399 0
-395 375 393 408 378 381 414 0
-395 375 393 408 378 399 414 0
-395 375 393 408 411 381 399 0
-395 375 393 408 411 381 414 0
-395 375 393 408 411 399 414 0
-395 375 393 408 381 399 414 0
-395 375 393 378 411 381 399 0
-395 375 393 378 411 381 414 0
-395 375 393 378 411 399 414 0
-395 375 393 378 381 399 414 0
-395 375 393 411 381 399 414 0
-395 375 408 378 411 381 399 0
-395 375 408 378 411 381 414 0
-395 375 408 378 411 399 414 0
-395 375 408 378 381 399 414 0
-395 375 408 411 381 399 414 0
-395 375 378 411 381 399 414 0
-395 393 408 378 411 381 399 0
-395 393 408 378 411 381 414 0
-395 393 408 378 411 399 414 0
-395 393 408 378 381 399 414 0
-395 393 408 411 381 399 414 0
-395 393 378 411 381 399 414 0
-395 408 378 411 381 399 414 0
-396 -373 -391 -406 -376 -409 0
-396 -373 -391 -406 -376 -379 0
-396 -373 -391 -406 -376 -397 0
-396 -373 -391 -406 -376 -412 0
-396 -373 -391 -406 -409 -379 0
-396 -373 -391 -406 -409 -397 0
-396 -373 -391 -406 -409 -412 0
-396 -373 -391 -406 -379 -397 0
-396 -373 -391 -406 -379 -412 0
-396 -373 -391 -406 -397 -412 0
-396 -373 -391 -376 -409 -379 0
-396 -373 -391 -376 -409 -397 0
-396 -373 -391 -376 -409 -412 0
-396 -373 -391 -376 -379 -397 0
-396 -373 -391 -376 -379 -412 0
-396 -373 -391 -376 -397 -412 0
-396 -373 -391 -409 -379 -397 0
-396 -373 -391 -409 -379 -412 0
-396 -373 -391 -409 -397 -412 0
-396 -373 -391 -379 -397 -412 0
-396 -373 -406 -376 -409 -379 0
-396 -373 -406 -376 -409 -397 0
-396 -373 -406 -376 -409 -412 0
-396 -373 -406 -376 -379 -397 0
-396 -373 -406 -376 -379 -412 0
-396 -373 -406 -376 -397 -412 0
-396 -373 -406 -409 -379 -397 0
-396 -373 -406 -409 -379 -412 0
-396 -373 -406 -409 -397 -412 0
-396 -373 -406 -379 -397 -412 0
-396 -373 -376 -409 -379 -397 0
-396 -373 -376 -409 -379 -412 0
-396 -373 -376 -409 -397 -412 0
-396 -373 -376 -379 -397 -412 0
-396 -373 -409 -379 -397 -412 0
-396 -391 -406 -376 -409 -379 0
-396 -391 -406 -376 -409 -397 0
-396 -391 -406 -376 -409 -412 0
-396 -391 -406 -376 -379 -397 0
-396 -391 -406 -376 -379 -412 0
-396 -391 -406 -376 -397 -412 0
-396 -391 -406 -409 -379 -397 0
-396 -391 -406 -409 -379 -412 0
-396 -391 -406 -409 -397 -412 0
-396 -391 -406 -379 -397 -412 0
-396 -391 -376 -409 -379 -397 0
-396 -391 -376 -409 -379 -412 0
-396 -391 -376 -409 -397 -412 0
-396 -391 -376 -379 -397 -412 0
-396 -391 -409 -379 -397 -412 0
-396 -406 -376 -409 -379 -397 0
-396 -406 -376 -409 -379 -412 0
-396 -406 -376 -409 -397 -412 0
-396 -406 -376 -379 -397 -412 0
-396 -406 -409 -379 -397 -412 0
-396 -376 -409 -379 -397 -412 0
-396 373 391 406 376 409 0
-396 373 391 406 376 379 0
-396 373 391 406 376 397 0
-396 373 391 406 376 412 0
-396 373 391 406 409 379 0
-396 373 391 406 409 397 0
-396 373 391 406 409 412 0
-396 373 391 406 379 397 0
-396 373 391 406 379 412 0
-396 373 391 406 397 412 0
-396 373 391 376 409 379 0
-396 373 391 376 409 397 0
-396 373 391 376 409 412 0
-396 373 391 376 379 397 0
-396 373 391 376 379 412 0
-396 373 391 376 397 412 0
-396 373 391 409 379 397 0
-396 373 391 409 379 412 0
-396 373 391 409 397 412 0
-396 373 391 379 397 412 0
-396 373 406 376 409 379 0
-396 373 406 376 409 397 0
-396 373 406 376 409 412 0
-396 373 406 376 379 397 0
-396 373 406 376 379 412 0
-396 373 406 376 397 412 0
-396 373 406 409 379 397 0
-396 373 406 409 379 412 0
-396 373 406 409 397 412 0
-396 373 406 379 397 412 0
-396 373 376 409 379 397 0
-396 373 376 409 379 412 0
-396 373 376 409 397 412 0
-396 373 376 379 397 412 0
-396 373 409 379 397 412 0
-396 391 406 376 409 379 0
-396 391 406 376 409 397 0
-396 391 406 376 409 412 0
-396 391 406 376 379 397 0
-396 391 406 376 379 412 0
-396 391 406 376 397 412 0
-396 391 406 409 379 397 0
-396 391 406 409 379 412 0
-396 391 406 409 397 412 0
-396 391 406 379 397 412 0
-396 391 376 409 379 397 0
-396 391 376 409 379 412 0
-396 391 376 409 397 412 0
-396 391 376 379 397 412 0
-396 391 409 379 397 412 0
-396 406 376 409 379 397 0
-396 406 376 409 379 412 0
-396 406 376 409 397 412 0
-396 406 376 379 397 412 0
-396 406 409 379 397 412 0
-396 376 409 379 397 412 0
-397 -398 0
-397 -399 0
-398 -399 0
-397 -377 -395 -410 0
-397 -377 -395 -380 0
-397 -377 -395 -413 0
-397 -377 -395 -383 0
-397 -377 -395 -401 0
-397 -377 -395 -416 0
-397 -377 -410 -380 0
-397 -377 -410 -413 0
-397 -377 -410 -383 0
-397 -377 -410 -401 0
-397 -377 -410 -416 0
-397 -377 -380 -413 0
-397 -377 -380 -383 0
-397 -377 -380 -401 0
-397 -377 -380 -416 0
-397 -377 -413 -383 0
-397 -377 -413 -401 0
-397 -377 -413 -416 0
-397 -377 -383 -401 0
-397 -377 -383 -416 0
-397 -377 -401 -416 0
-397 -395 -410 -380 0
-397 -395 -410 -413 0
-397 -395 -410 -383 0
-397 -395 -410 -401 0
-397 -395 -410 -416 0
-397 -395 -380 -413 0
-397 -395 -380 -383 0
-397 -395 -380 -401 0
-397 -395 -380 -416 0
-397 -395 -413 -383 0
-397 -395 -413 -401 0
-397 -395 -413 -416 0
-397 -395 -383 -401 0
-397 -395 -383 -416 0
-397 -395 -401 -416 0
-397 -410 -380 -413 0
-397 -410 -380 -383 0
-397 -410 -380 -401 0
-397 -410 -380 -416 0
-397 -410 -413 -383 0
-397 -410 -413 -401 0
-397 -410 -413 -416 0
-397 -410 -383 -401 0
-397 -410 -383 -416 0
-397 -410 -401 -416 0
-397 -380 -413 -383 0
-397 -380 -413 -401 0
-397 -380 -413 -416 0
-397 -380 -383 -401 0
-397 -380 -383 -416 0
-397 -380 -401 -416 0
-397 -413 -383 -401 0
-397 -413 -383 -416 0
-397 -413 -401 -416 0
-397 -383 -401 -416 0
-397 377 395 410 380 413 383 401 0
-397 377 395 410 380 413 383 416 0
-397 377 395 410 380 413 401 416 0
-397 377 395 410 380 383 401 416 0
-397 377 395 410 413 383 401 416 0
-397 377 395 380 413 383 401 416 0
-397 377 410 380 413 383 401 416 0
-397 395 410 380 413 383 401 416 0
-398 -378 -396 -411 -381 0
-398 -378 -396 -411 -414 0
-398 -378 -396 -411 -384 0
-398 -378 -396 -411 -402 0
-398 -378 -396 -411 -417 0
-398 -378 -396 -381 -414 0
-398 -378 -396 -381 -384 0
-398 -378 -396 -381 -402 0
-398 -378 -396 -381 -417 0
-398 -378 -396 -414 -384 0
-398 -378 -396 -414 -402 0
-398 -378 -396 -414 -417 0
-398 -378 -396 -384 -402 0
-398 -378 -396 -384 -417 0
-398 -378 -396 -402 -417 0
-398 -378 -411 -381 -414 0
-398 -378 -411 -381 -384 0
-398 -378 -411 -381 -402 0
-398 -378 -411 -381 -417 0
-398 -378 -411 -414 -384 0
-398 -378 -411 -414 -402 0
-398 -378 -411 -414 -417 0
-398 -378 -411 -384 -402 0
-398 -378 -411 -384 -417 0
-398 -378 -411 -402 -417 0
-398 -378 -381 -414 -384 0
-398 -378 -381 -414 -402 0
-398 -378 -381 -414 -417 0
-398 -378 -381 -384 -402 0
-398 -378 -381 -384 -417 0
-398 -378 -381 -402 -417 0
-398 -378 -414 -384 -402 0
-398 -378 -414 -384 -417 0
-398 -378 -414 -402 -417 0
-398 -378 -384 -402 -417 0
-398 -396 -411 -381 -414 0
-398 -396 -411 -381 -384 0
-398 -396 -411 -381 -402 0
-398 -396 -411 -381 -417 0
-398 -396 -411 -414 -384 0
-398 -396 -411 -414 -402 0
-398 -396 -411 -414 -417 0
-398 -396 -411 -384 -402 0
-398 -396 -411 -384 -417 0
-398 -396 -411 -402 -417 0
-398 -396 -381 -414 -384 0
-398 -396 -381 -414 -402 0
-398 -396 -381 -414 -417 0
-398 -396 -381 -384 -402 0
-398 -396 -381 -384 -417 0
-398 -396 -381 -402 -417 0
-398 -396 -414 -384 -402 0
-398 -396 -414 -384 -417 0
-398 -396 -414 -402 -417 0
-398 -396 -384 -402 -417 0
-398 -411 -381 -414 -384 0
-398 -411 -381 -414 -402 0
-398 -411 -381 -414 -417 0
-398 -411 -381 -384 -402 0
-398 -411 -381 -384 -417 0
-398 -411 -381 -402 -417 0
-398 -411 -414 -384 -402 0
-398 -411 -414 -384 -417 0
-398 -411 -414 -402 -417 0
-398 -411 -384 -402 -417 0
-398 -381 -414 -384 -402 0
-398 -381 -414 -384 -417 0
-398 -381 -414 -402 -417 0
-398 -381 -384 -402 -417 0
-398 -414 -384 -402 -417 0
-398 378 396 411 381 414 384 0
-398 378 396 411 381 414 402 0
-398 378 396 411 381 414 417 0
-398 378 396 411 381 384 402 0
-398 378 396 411 381 384 417 0
-398 378 396 411 381 402 417 0
-398 378 396 411 414 384 402 0
-398 378 396 411 414 384 417 0
-398 378 396 411 414 402 417 0
-398 378 396 411 384 402 417 0
-398 378 396 381 414 384 402 0
-398 378 396 381 414 384 417 0
-398 378 396 381 414 402 417 0
-398 378 396 381 384 402 417 0
-398 378 396 414 384 402 417 0
-398 378 411 381 414 384 402 0
-398 378 411 381 414 384 417 0
-398 378 411 381 414 402 417 0
-398 378 411 381 384 402 417 0
-398 378 411 414 384 402 417 0
-398 378 381 414 384 402 417 0
-398 396 411 381 414 384 402 0
-398 396 411 381 414 384 417 0
-398 396 411 381 414 402 417 0
-398 396 411 381 384 402 417 0
-398 396 411 414 384 402 417 0
-398 396 381 414 384 402 417 0
-398 411 381 414 384 402 417 0
-399 -376 -394 -409 -379 -412 0
-399 -376 -394 -409 -379 -382 0
-399 -376 -394 -409 -379 -400 0
-399 -376 -394 -409 -379 -415 0
-399 -376 -394 -409 -412 -382 0
-399 -376 -394 -409 -412 -400 0
-399 -376 -394 -409 -412 -415 0
-399 -376 -394 -409 -382 -400 0
-399 -376 -394 -409 -382 -415 0
-399 -376 -394 -409 -400 -415 0
-399 -376 -394 -379 -412 -382 0
-399 -376 -394 -379 -412 -400 0
-399 -376 -394 -379 -412 -415 0
-399 -376 -394 -379 -382 -400 0
-399 -376 -394 -379 -382 -415 0
-399 -376 -394 -379 -400 -415 0
-399 -376 -394 -412 -382 -400 0
-399 -376 -394 -412 -382 -415 0
-399 -376 -394 -412 -400 -415 0
-399 -376 -394 -382 -400 -415 0
-399 -376 -409 -379 -412 -382 0
-399 -376 -409 -379 -412 -400 0
-399 -376 -409 -379 -412 -415 0
-399 -376 -409 -379 -382 -400 0
-399 -376 -409 -379 -382 -415 0
-399 -376 -409 -379 -400 -415 0
-399 -376 -409 -412 -382 -400 0
-399 -376 -409 -412 -382 -415 0
-399 -376 -409 -412 -400 -415 0
-399 -376 -409 -382 -400 -415 0
-399 -376 -379 -412 -382 -400 0
-399 -376 -379 -412 -382 -415 0
-399 -376 -379 -412 -400 -415 0
-399 -376 -379 -382 -400 -415 0
-399 -376 -412 -382 -400 -415 0
-399 -394 -409 -379 -412 -382 0
-399 -394 -409 -379 -412 -400 0
-399 -394 -409 -379 -412 -415 0
-399 -394 -409 -379 -382 -400 0
-399 -394 -409 -379 -382 -415 0
-399 -394 -409 -379 -400 -415 0
-399 -394 -409 -412 -382 -400 0
-399 -394 -409 -412 -382 -415 0
-399 -394 -409 -412 -400 -415 0
-399 -394 -409 -382 -400 -415 0
-399 -394 -379 -412 -382 -400 0
-399 -394 -379 -412 -382 -415 0
-399 -394 -379 -412 -400 -415 0
-399 -394 -379 -382 -400 -415 0
-399 -394 -412 -382 -400 -415 0
-399 -409 -379 -412 -382 -400 0
-399 -409 -379 -412 -382 -415 0
-399 -409 -379 -412 -400 -415 0
-399 -409 -379 -382 -400 -415 0
-399 -409 -412 -382 -400 -415 0
-399 -379 -412 -382 -400 -415 0
-399 376 394 409 379 412 0
-399 376 394 409 379 382 0
-399 376 394 409 379 400 0
-399 376 394 409 379 415 0
-399 376 394 409 412 382 0
-399 376 394 409 412 400 0
-399 376 394 409 412 415 0
-399 376 394 409 382 400 0
-399 376 394 409 382 415 0
-399 376 394 409 400 415 0
-399 376 394 379 412 382 0
-399 376 394 379 412 400 0
-399 376 394 379 412 415 0
-399 376 394 379 382 400 0
-399 376 394 379 382 415 0
-399 376 394 379 400 415 0
-399 376 394 412 382 400 0
-399 376 394 412 382 415 0
-399 376 394 412 400 415 0
-399 376 394 382 400 415 0
-399 376 409 379 412 382 0
-399 376 409 379 412 400 0
-399 376 409 379 412 415 0
-399 376 409 379 382 400 0
-399 376 409 379 382 415 0
-399 376 409 379 400 415 0
-399 376 409 412 382 400 0
-399 376 409 412 382 415 0
-399 376 409 412 400 415 0
-399 376 409 382 400 415 0
-399 376 379 412 382 400 0
-399 376 379 412 382 415 0
-399 376 379 412 400 415 0
-399 376 379 382 400 415 0
-399 376 412 382 400 415 0
-399 394 409 379 412 382 0
-399 394 409 379 412 400 0
-399 394 409 379 412 415 0
-399 394 409 379 382 400 0
-399 394 409 379 382 415 0
-399 394 409 379 400 415 0
-399 394 409 412 382 400 0
-399 394 409 412 382 415 0
-399 394 409 412 400 415 0
-399 394 409 382 400 415 0
-399 394 379 412 382 400 0
-399 394 379 412 382 415 0
-399 394 379 412 400 415 0
-399 394 379 382 400 415 0
-399 394 412 382 400 415 0
-399 409 379 412 382 400 0
-399 409 379 412 382 415 0
-399 409 379 412 400 415 0
-399 409 379 382 400 415 0
-399 409 412 382 400 415 0
-399 379 412 382 400 415 0
-400 -401 0
-400 -402 0
-401 -402 0
-400 -380 -398 -413 0
-400 -380 -398 -383 0
-400 -380 -398 -416 0
-400 -380 -398 -386 0
-400 -380 -398 -404 0
-400 -380 -413 -383 0
-400 -380 -413 -416 0
-400 -380 -413 -386 0
-400 -380 -413 -404 0
-400 -380 -383 -416 0
-400 -380 -383 -386 0
-400 -380 -383 -404 0
-400 -380 -416 -386 0
-400 -380 -416 -404 0
-400 -380 -386 -404 0
-400 -398 -413 -383 0
-400 -398 -413 -416 0
-400 -398 -413 -386 0
-400 -398 -413 -404 0
-400 -398 -383 -416 0
-400 -398 -383 -386 0
-400 -398 -383 -404 0
-400 -398 -416 -386 0
-400 -398 -416 -404 0
-400 -398 -386 -404 0
-400 -413 -383 -416 0
-400 -413 -383 -386 0
-400 -413 -383 -404 0
-400 -413 -416 -386 0
-400 -413 -416 -404 0
-400 -413 -386 -404 0
-400 -383 -416 -386 0
-400 -383 -416 -404 0
-400 -383 -386 -404 0
-400 -416 -386 -404 0
-400 380 398 413 383 416 386 0
-400 380 398 413 383 416 404 0
-400 380 398 413 383 386 404 0
-400 380 398 413 416 386 404 0
-400 380 398 383 416 386 404 0
-400 380 413 383 416 386 404 0
-400 398 413 383 416 386 404 0
-401 -381 -399 -414 -384 0
-401 -381 -399 -414 -417 0
-401 -381 -399 -414 -387 0
-401 -381 -399 -414 -405 0
-401 -381 -399 -384 -417 0
-401 -381 -399 -384 -387 0
-401 -381 -399 -384 -405 0
-401 -381 -399 -417 -387 0
-401 -381 -399 -417 -405 0
-401 -381 -399 -387 -405 0
-401 -381 -414 -384 -417 0
-401 -381 -414 -384 -387 0
-401 -381 -414 -384 -405 0
-401 -381 -414 -417 -387 0
-401 -381 -414 -417 -405 0
-401 -381 -414 -387 -405 0
-401 -381 -384 -417 -387 0
-401 -381 -384 -417 -405 0
-401 -381 -384 -387 -405 0
-401 -381 -417 -387 -405 0
-401 -399 -414 -384 -417 0
-401 -399 -414 -384 -387 0
-401 -399 -414 -384 -405 0
-401 -399 -414 -417 -387 0
-401 -399 -414 -417 -405 0
-401 -399 -414 -387 -405 0
-401 -399 -384 -417 -387 0
-401 -399 -384 -417 -405 0
-401 -399 -384 -387 -405 0
-401 -399 -417 -387 -405 0
-401 -414 -384 -417 -387 0
-401 -414 -384 -417 -405 0
-401 -414 -384 -387 -405 0
-401 -414 -417 -387 -405 0
-401 -384 -417 -387 -405 0
-401 381 399 414 384 417 0
-401 381 399 414 384 387 0
-401 381 399 414 384 405 0
-401 381 399 414 417 387 0
-401 381 399 414 417 405 0
-401 381 399 414 387 405 0
-401 381 399 384 417 387 0
-401 381 399 384 417 405 0
-401 381 399 384 387 405 0
-401 381 399 417 387 405 0
-401 381 414 384 417 387 0
-401 381 414 384 417 405 0
-401 381 414 384 387 405 0
-401 381 414 417 387 405 0
-401 381 384 417 387 405 0
-401 399 414 384 417 387 0
-401 399 414 384 417 405 0
-401 399 414 384 387 405 0
-401 399 414 417 387 405 0
-401 399 384 417 387 405 0
-401 414 384 417 387 405 0
-402 -379 -397 -412 -382 -415 0
-402 -379 -397 -412 -382 -385 0
-402 -379 -397 -412 -382 -403 0
-402 -379 -397 -412 -415 -385 0
-402 -379 -397 -412 -415 -403 0
-402 -379 -397 -412 -385 -403 0
-402 -379 -397 -382 -415 -385 0
-402 -379 -397 -382 -415 -403 0
-402 -379 -397 -382 -385 -403 0
-402 -379 -397 -415 -385 -403 0
-402 -379 -412 -382 -415 -385 0
-402 -379 -412 -382 -415 -403 0
-402 -379 -412 -382 -385 -403 0
-402 -379 -412 -415 -385 -403 0
-402 -379 -382 -415 -385 -403 0
-402 -397 -412 -382 -415 -385 0
-402 -397 -412 -382 -415 -403 0
-402 -397 -412 -382 -385 -403 0
-402 -397 -412 -415 -385 -403 0
-402 -397 -382 -415 -385 -403 0
-402 -412 -382 -415 -385 -403 0
-402 379 397 412 382 0
-402 379 397 412 415 0
-402 379 397 412 385 0
-402 379 397 412 403 0
-402 379 397 382 415 0
-402 379 397 382 385 0
-402 379 397 382 403 0
-402 379 397 415 385 0
-402 379 397 415 403 0
-402 379 397 385 403 0
-402 379 412 382 415 0
-402 379 412 382 385 0
-402 379 412 382 403 0
-402 379 412 415 385 0
-402 379 412 415 403 0
-402 379 412 385 403 0
-402 379 382 415 385 0
-402 379 382 415 403 0
-402 379 382 385 403 0
-402 379 415 385 403 0
-402 397 412 382 415 0
-402 397 412 382 385 0
-402 397 412 382 403 0
-402 397 412 415 385 0
-402 397 412 415 403 0
-402 397 412 385 403 0
-402 397 382 415 385 0
-402 397 382 415 403 0
-402 397 382 385 403 0
-402 397 415 385 403 0
-402 412 382 415 385 0
-402 412 382 415 403 0
-402 412 382 385 403 0
-402 412 415 385 403 0
-402 382 415 385 403 0
-403 -404 0
-403 -405 0
-404 -405 0
-403 -383 -401 -416 0
-403 -383 -401 -386 0
-403 -383 -401 -389 0
-403 -383 -416 -386 0
-403 -383 -416 -389 0
-403 -383 -386 -389 0
-403 -401 -416 -386 0
-403 -401 -416 -389 0
-403 -401 -386 -389 0
-403 -416 -386 -389 0
-403 383 401 416 386 0
-403 383 401 416 389 0
-403 383 401 386 389 0
-403 383 416 386 389 0
-403 401 416 386 389 0
-404 -384 -402 -417 -387 0
-404 -384 -402 -417 -390 0
-404 -384 -402 -387 -390 0
-404 -384 -417 -387 -390 0
-404 -402 -417 -387 -390 0
-404 384 402 417 0
-404 384 402 387 0
-404 384 402 390 0
-404 384 417 387 0
-404 384 417 390 0
-404 384 387 390 0
-404 402 417 387 0
-404 402 417 390 0
-404 402 387 390 0
-404 417 387 390 0
-405 -382 -400 -415 -385 -388 0
-405 382 400 0
-405 382 415 0
-405 382 385 0
-405 382 388 0
-405 400 415 0
-405 400 385 0
-405 400 388 0
-405 415 385 0
-405 415 388 0
-405 385 388 0
-406 -407 0
-406 -408 0
-407 -408 0
-409 -410 0
-409 -411 0
-410 -411 0
-409 -392 -407 -419 0
-409 -392 -407 -395 0
-409 -392 -407 -422 0
-409 -392 -407 -398 0
-409 -392 -407 -413 0
-409 -392 -407 -425 0
-409 -392 -419 -395 0
-409 -392 -419 -422 0
-409 -392 -419 -398 0
-409 -392 -419 -413 0
-409 -392 -419 -425 0
-409 -392 -395 -422 0
-409 -392 -395 -398 0
-409 -392 -395 -413 0
-409 -392 -395 -425 0
-409 -392 -422 -398 0
-409 -392 -422 -413 0
-409 -392 -422 -425 0
-409 -392 -398 -413 0
-409 -392 -398 -425 0
-409 -392 -413 -425 0
-409 -407 -419 -395 0
-409 -407 -419 -422 0
-409 -407 -419 -398 0
-409 -407 -419 -413 0
-409 -407 -419 -425 0
-409 -407 -395 -422 0
-409 -407 -395 -398 0
-409 -407 -395 -413 0
-409 -407 -395 -425 0
-409 -407 -422 -398 0
-409 -407 -422 -413 0
-409 -407 -422 -425 0
-409 -407 -398 -413 0
-409 -407 -398 -425 0
-409 -407 -413 -425 0
-409 -419 -395 -422 0
-409 -419 -395 -398 0
-409 -419 -395 -413 0
-409 -419 -395 -425 0
-409 -419 -422 -398 0
-409 -419 -422 -413 0
-409 -419 -422 -425 0
-409 -419 -398 -413 0
-409 -419 -398 -425 0
-409 -419 -413 -425 0
-409 -395 -422 -398 0
-409 -395 -422 -413 0
-409 -395 -422 -425 0
-409 -395 -398 -413 0
-409 -395 -398 -425 0
-409 -395 -413 -425 0
-409 -422 -398 -413 0
-409 -422 -398 -425 0
-409 -422 -413 -425 0
-409 -398 -413 -425 0
-409 392 407 419 395 422 398 413 0
-409 392 407 419 395 422 398 425 0
-409 392 407 419 395 422 413 425 0
-409 392 407 419 395 398 413 425 0
-409 392 407 419 422 398 413 425 0
-409 392 407 395 422 398 413 425 0
-409 392 419 395 422 398 413 425 0
-409 407 419 395 422 398 413 425 0
-410 -393 -408 -420 -396 0
-410 -393 -408 -420 -423 0
-410 -393 -408 -420 -399 0
-410 -393 -408 -420 -414 0
-410 -393 -408 -420 -426 0
-410 -393 -408 -396 -423 0
-410 -393 -408 -396 -399 0
-410 -393 -408 -396 -414 0
-410 -393 -408 -396 -426 0
-410 -393 -408 -423 -399 0
-410 -393 -408 -423 -414 0
-410 -393 -408 -423 -426 0
-410 -393 -408 -399 -414 0
-410 -393 -408 -399 -426 0
-410 -393 -408 -414 -426 0
-410 -393 -420 -396 -423 0
-410 -393 -420 -396 -399 0
-410 -393 -420 -396 -414 0
-410 -393 -420 -396 -426 0
-410 -393 -420 -423 -399 0
-410 -393 -420 -423 -414 0
-410 -393 -420 -423 -426 0
-410 -393 -420 -399 -414 0
-410 -393 -420 -399 -426 0
-410 -393 -420 -414 -426 0
-410 -393 -396 -423 -399 0
-410 -393 -396 -423 -414 0
-410 -393 -396 -423 -426 0
-410 -393 -396 -399 -414 0
-410 -393 -396 -399 -426 0
-410 -393 -396 -414 -426 0
-410 -393 -423 -399 -414 0
-410 -393 -423 -399 -426 0
-410 -393 -423 -414 -426 0
-410 -393 -399 -414 -426 0
-410 -408 -420 -396 -423 0
-410 -408 -420 -396 -399 0
-410 -408 -420 -396 -414 0
-410 -408 -420 -396 -426 0
-410 -408 -420 -423 -399 0
-410 -408 -420 -423 -414 0
-410 -408 -420 -423 -426 0
-410 -408 -420 -399 -414 0
-410 -408 -420 -399 -426 0
-410 -408 -420 -414 -426 0
-410 -408 -396 -423 -399 0
-410 -408 -396 -423 -414 0
-410 -408 -396 -423 -426 0
-410 -408 -396 -399 -414 0
-410 -408 -396 -399 -426 0
-410 -408 -396 -414 -426 0
-410 -408 -423 -399 -414 0
-410 -408 -423 -399 -426 0
-410 -408 -423 -414 -426 0
-410 -408 -399 -414 -426 0
-410 -420 -396 -423 -399 0
-410 -420 -396 -423 -414 0
-410 -420 -396 -423 -426 0
-410 -420 -396 -399 -414 0
-410 -420 -396 -399 -426 0
-410 -420 -396 -414 -426 0
-410 -420 -423 -399 -414 0
-410 -420 -423 -399 -426 0
-410 -420 -423 -414 -426 0
-410 -420 -399 -414 -426 0
-410 -396 -423 -399 -414 0
-410 -396 -423 -399 -426 0
-410 -396 -423 -414 -426 0
-410 -396 -399 -414 -426 0
-410 -423 -399 -414 -426 0
-410 393 408 420 396 423 399 0
-410 393 408 420 396 423 414 0
-410 393 408 420 396 423 426 0
-410 393 408 420 396 399 414 0
-410 393 408 420 396 399 426 0
-410 393 408 420 396 414 426 0
-410 393 408 420 423 399 414 0
-410 393 408 420 423 399 426 0
-410 393 408 420 423 414 426 0
-410 393 408 420 399 414 426 0
-410 393 408 396 423 399 414 0
-410 393 408 396 423 399 426 0
-410 393 408 396 423 414 426 0
-410 393 408 396 399 414 426 0
-410 393 408 423 399 414 426 0
-410 393 420 396 423 399 414 0
-410 393 420 396 423 399 426 0
-410 393 420 396 423 414 426 0
-410 393 420 396 399 414 426 0
-410 393 420 423 399 414 426 0
-410 393 396 423 399 414 426 0
-410 408 420 396 423 399 414 0
-410 408 420 396 423 399 426 0
-410 408 420 396 423 414 426 0
-410 408 420 396 399 414 426 0
-410 408 420 423 399 414 426 0
-410 408 396 423 399 414 426 0
-410 420 396 423 399 414 426 0
-411 -391 -406 -418 -394 -421 0
-411 -391 -406 -418 -394 -397 0
-411 -391 -406 -418 -394 -412 0
-411 -391 -406 -418 -394 -424 0
-411 -391 -406 -418 -421 -397 0
-411 -391 -406 -418 -421 -412 0
-411 -391 -406 -418 -421 -424 0
-411 -391 -406 -418 -397 -412 0
-411 -391 -406 -418 -397 -424 0
-411 -391 -406 -418 -412 -424 0
-411 -391 -406 -394 -421 -397 0
-411 -391 -406 -394 -421 -412 0
-411 -391 -406 -394 -421 -424 0
-411 -391 -406 -394 -397 -412 0
-411 -391 -406 -394 -397 -424 0
-411 -391 -406 -394 -412 -424 0
-411 -391 -406 -421 -397 -412 0
-411 -391 -406 -421 -397 -424 0
-411 -391 -406 -421 -412 -424 0
-411 -391 -406 -397 -412 -424 0
-411 -391 -418 -394 -421 -397 0
-411 -391 -418 -394 -421 -412 0
-411 -391 -418 -394 -421 -424 0
-411 -391 -418 -394 -397 -412 0
-411 -391 -418 -394 -397 -424 0
-411 -391 -418 -394 -412 -424 0
-411 -391 -418 -421 -397 -412 0
-411 -391 -418 -421 -397 -424 0
-411 -391 -418 -421 -412 -424 0
-411 -391 -418 -397 -412 -424 0
-411 -391 -394 -421 -397 -412 0
-411 -391 -394 -421 -397 -424 0
-411 -391 -394 -421 -412 -424 0
-411 -391 -394 -397 -412 -424 0
-411 -391 -421 -397 -412 -424 0
-411 -406 -418 -394 -421 -397 0
-411 -406 -418 -394 -421 -412 0
-411 -406 -418 -394 -421 -424 0
-411 -406 -418 -394 -397 -412 0
-411 -406 -418 -394 -397 -424 0
-411 -406 -418 -394 -412 -424 0
-411 -406 -418 -421 -397 -412 0
-411 -406 -418 -421 -397 -424 0
-411 -406 -418 -421 -412 -424 0
-411 -406 -418 -397 -412 -424 0
-411 -406 -394 -421 -397 -412 0
-411 -406 -394 -421 -397 -424 0
-411 -406 -394 -421 -412 -424 0
-411 -406 -394 -397 -412 -424 0
-411 -406 -421 -397 -412 -424 0
-411 -418 -394 -421 -397 -412 0
-411 -418 -394 -421 -397 -424 0
-411 -418 -394 -421 -412 -424 0
-411 -418 -394 -397 -412 -424 0
-411 -418 -421 -397 -412 -424 0
-411 -394 -421 -397 -412 -424 0
-411 391 406 418 394 421 0
-411 391 406 418 394 397 0
-411 391 406 418 394 412 0
-411 391 406 418 394 424 0
-411 391 406 418 421 397 0
-411 391 406 418 421 412 0
-411 391 406 418 421 424 0
-411 391 406 418 397 412 0
-411 391 406 418 397 424 0
-411 391 406 418 412 424 0
-411 391 406 394 421 397 0
-411 391 406 394 421 412 0
-411 391 406 394 421 424 0
-411 391 406 394 397 412 0
-411 391 406 394 397 424 0
-411 391 406 394 412 424 0
-411 391 406 421 397 412 0
-411 391 406 421 397 424 0
-411 391 406 421 412 424 0
-411 391 406 397 412 424 0
-411 391 418 394 421 397 0
-411 391 418 394 421 412 0
-411 391 418 394 421 424 0
-411 391 418 394 397 412 0
-411 391 418 394 397 424 0
-411 391 418 394 412 424 0
-411 391 418 421 397 412 0
-411 391 418 421 397 424 0
-411 391 418 421 412 424 0
-411 391 418 397 412 424 0
-411 391 394 421 397 412 0
-411 391 394 421 397 424 0
-411 391 394 421 412 424 0
-411 391 394 397 412 424 0
-411 391 421 397 412 424 0
-411 406 418 394 421 397 0
-411 406 418 394 421 412 0
-411 406 418 394 421 424 0
-411 406 418 394 397 412 0
-411 406 418 394 397 424 0
-411 406 418 394 412 424 0
-411 406 418 421 397 412 0
-411 406 418 421 397 424 0
-411 406 418 421 412 424 0
-411 406 418 397 412 424 0
-411 406 394 421 397 412 0
-411 406 394 421 397 424 0
-411 406 394 421 412 424 0
-411 406 394 397 412 424 0
-411 406 421 397 412 424 0
-411 418 394 421 397 412 0
-411 418 394 421 397 424 0
-411 418 394 421 412 424 0
-411 418 394 397 412 424 0
-411 418 421 397 412 424 0
-411 394 421 397 412 424 0
-412 -413 0
-412 -414 0
-413 -414 0
-412 -395 -410 -422 0
-412 -395 -410 -398 0
-412 -395 -410 -425 0
-412 -395 -410 -401 0
-412 -395 -410 -416 0
-412 -395 -422 -398 0
-412 -395 -422 -425 0
-412 -395 -422 -401 0
-412 -395 -422 -416 0
-412 -395 -398 -425 0
-412 -395 -398 -401 0
-412 -395 -398 -416 0
-412 -395 -425 -401 0
-412 -395 -425 -416 0
-412 -395 -401 -416 0
-412 -410 -422 -398 0
-412 -410 -422 -425 0
-412 -410 -422 -401 0
-412 -410 -422 -416 0
-412 -410 -398 -425 0
-412 -410 -398 -401 0
-412 -410 -398 -416 0
-412 -410 -425 -401 0
-412 -410 -425 -416 0
-412 -410 -401 -416 0
-412 -422 -398 -425 0
-412 -422 -398 -401 0
-412 -422 -398 -416 0
-412 -422 -425 -401 0
-412 -422 -425 -416 0
-412 -422 -401 -416 0
-412 -398 -425 -401 0
-412 -398 -425 -416 0
-412 -398 -401 -416 0
-412 -425 -401 -416 0
-412 395 410 422 398 425 401 0
-412 395 410 422 398 425 416 0
-412 395 410 422 398 401 416 0
-412 395 410 422 425 401 416 0
-412 395 410 398 425 401 416 0
-412 395 422 398 425 401 416 0
-412 410 422 398 425 401 416 0
-413 -396 -411 -423 -399 0
-413 -396 -411 -423 -426 0
-413 -396 -411 -423 -402 0
-413 -396 -411 -423 -417 0
-413 -396 -411 -399 -426 0
-413 -396 -411 -399 -402 0
-413 -396 -411 -399 -417 0
-413 -396 -411 -426 -402 0
-413 -396 -411 -426 -417 0
-413 -396 -411 -402 -417 0
-413 -396 -423 -399 -426 0
-413 -396 -423 -399 -402 0
-413 -396 -423 -399 -417 0
-413 -396 -423 -426 -402 0
-413 -396 -423 -426 -417 0
-413 -396 -423 -402 -417 0
-413 -396 -399 -426 -402 0
-413 -396 -399 -426 -417 0
-413 -396 -399 -402 -417 0
-413 -396 -426 -402 -417 0
-413 -411 -423 -399 -426 0
-413 -411 -423 -399 -402 0
-413 -411 -423 -399 -417 0
-413 -411 -423 -426 -402 0
-413 -411 -423 -426 -417 0
-413 -411 -423 -402 -417 0
-413 -411 -399 -426 -402 0
-413 -411 -399 -426 -417 0
-413 -411 -399 -402 -417 0
-413 -411 -426 -402 -417 0
-413 -423 -399 -426 -402 0
-413 -423 -399 -426 -417 0
-413 -423 -399 -402 -417 0
-413 -423 -426 -402 -417 0
-413 -399 -426 -402 -417 0
-413 396 411 423 399 426 0
-413 396 411 423 399 402 0
-413 396 411 423 399 417 0
-413 396 411 423 426 402 0
-413 396 411 423 426 417 0
-413 396 411 423 402 417 0
-413 396 411 399 426 402 0
-413 396 411 399 426 417 0
-413 396 411 399 402 417 0
-413 396 411 426 402 417 0
-413 396 423 399 426 402 0
-413 396 423 399 426 417 0
-413 396 423 399 402 417 0
-413 396 423 426 402 417 0
-413 396 399 426 402 417 0
-413 411 423 399 426 402 0
-413 411 423 399 426 417 0
-413 411 423 399 402 417 0
-413 411 423 426 402 417 0
-413 411 399 426 402 417 0
-413 423 399 426 402 417 0
-414 -394 -409 -421 -397 -424 0
-414 -394 -409 -421 -397 -400 0
-414 -394 -409 -421 -397 -415 0
-414 -394 -409 -421 -424 -400 0
-414 -394 -409 -421 -424 -415 0
-414 -394 -409 -421 -400 -415 0
-414 -394 -409 -397 -424 -400 0
-414 -394 -409 -397 -424 -415 0
-414 -394 -409 -397 -400 -415 0
-414 -394 -409 -424 -400 -415 0
-414 -394 -421 -397 -424 -400 0
-414 -394 -421 -397 -424 -415 0
-414 -394 -421 -397 -400 -415 0
-414 -394 -421 -424 -400 -415 0
-414 -394 -397 -424 -400 -415 0
-414 -409 -421 -397 -424 -400 0
-414 -409 -421 -397 -424 -415 0
-414 -409 -421 -397 -400 -415 0
-414 -409 -421 -424 -400 -415 0
-414 -409 -397 -424 -400 -415 0
-414 -421 -397 -424 -400 -415 0
-414 394 409 421 397 0
-414 394 409 421 424 0
-414 394 409 421 400 0
-414 394 409 421 415 0
-414 394 409 397 424 0
-414 394 409 397 400 0
-414 394 409 397 415 0
-414 394 409 424 400 0
-414 394 409 424 415 0
-414 394 409 400 415 0
-414 394 421 397 424 0
-414 394 421 397 400 0
-414 394 421 397 415 0
-414 394 421 424 400 0
-414 394 421 424 415 0
-414 394 421 400 415 0
-414 394 397 424 400 0
-414 394 397 424 415 0
-414 394 397 400 415 0
-414 394 424 400 415 0
-414 409 421 397 424 0
-414 409 421 397 400 0
-414 409 421 397 415 0
-414 409 421 424 400 0
-414 409 421 424 415 0
-414 409 421 400 415 0
-414 409 397 424 400 0
-414 409 397 424 415 0
-414 409 397 400 415 0
-414 409 424 400 415 0
-414 421 397 424 400 0
-414 421 397 424 415 0
-414 421 397 400 415 0
-414 421 424 400 415 0
-414 397 424 400 415 0
-415 -416 0
-415 -417 0
-416 -417 0
-415 -398 -413 -425 0
-415 -398 -413 -401 0
-415 -398 -413 -404 0
-415 -398 -425 -401 0
-415 -398 -425 -404 0
-415 -398 -401 -404 0
-415 -413 -425 -401 0
-415 -413 -425 -404 0
-415 -413 -401 -404 0
-415 -425 -401 -404 0
-415 398 413 425 401 0
-415 398 413 425 404 0
-415 398 413 401 404 0
-415 398 425 401 404 0
-415 413 425 401 404 0
-416 -399 -414 -426 -402 0
-416 -399 -414 -426 -405 0
-416 -399 -414 -402 -405 0
-416 -399 -426 -402 -405 0
-416 -414 -426 -402 -405 0
-416 399 414 426 0
-416 399 414 402 0
-416 399 414 405 0
-416 399 426 402 0
-416 399 426 405 0
-416 399 402 405 0
-416 414 426 402 0
-416 414 426 405 0
-416 414 402 405 0
-416 426 402 405 0
-417 -397 -412 -424 -400 -403 0
-417 397 412 0
-417 397 424 0
-417 397 400 0
-417 397 403 0
-417 412 424 0
-417 412 400 0
-417 412 403 0
-417 424 400 0
-417 424 403 0
-417 400 403 0
-418 -419 0
-418 -420 0
-419 -420 0
-421 -422 0
-421 -423 0
-422 -423 0
-421 -407 -419 -428 0
-421 -407 -419 -410 0
-421 -407 -419 -431 0
-421 -407 -419 -413 0
-421 -407 -419 -425 0
-421 -407 -428 -410 0
-421 -407 -428 -431 0
-421 -407 -428 -413 0
-421 -407 -428 -425 0
-421 -407 -410 -431 0
-421 -407 -410 -413 0
-421 -407 -410 -425 0
-421 -407 -431 -413 0
-421 -407 -431 -425 0
-421 -407 -413 -425 0
-421 -419 -428 -410 0
-421 -419 -428 -431 0
-421 -419 -428 -413 0
-421 -419 -428 -425 0
-421 -419 -410 -431 0
-421 -419 -410 -413 0
-421 -419 -410 -425 0
-421 -419 -431 -413 0
-421 -419 -431 -425 0
-421 -419 -413 -425 0
-421 -428 -410 -431 0
-421 -428 -410 -413 0
-421 -428 -410 -425 0
-421 -428 -431 -413 0
-421 -428 -431 -425 0
-421 -428 -413 -425 0
-421 -410 -431 -413 0
-421 -410 -431 -425 0
-421 -410 -413 -425 0
-421 -431 -413 -425 0
-421 407 419 428 410 431 413 0
-421 407 419 428 410 431 425 0
-421 407 419 428 410 413 425 0
-421 407 419 428 431 413 425 0
-421 407 419 410 431 413 425 0
-421 407 428 410 431 413 425 0
-421 419 428 410 431 413 425 0
-422 -408 -420 -429 -411 0
-422 -408 -420 -429 -432 0
-422 -408 -420 -429 -414 0
-422 -408 -420 -429 -426 0
-422 -408 -420 -411 -432 0
-422 -408 -420 -411 -414 0
-422 -408 -420 -411 -426 0
-422 -408 -420 -432 -414 0
-422 -408 -420 -432 -426 0
-422 -408 -420 -414 -426 0
-422 -408 -429 -411 -432 0
-422 -408 -429 -411 -414 0
-422 -408 -429 -411 -426 0
-422 -408 -429 -432 -414 0
-422 -408 -429 -432 -426 0
-422 -408 -429 -414 -426 0
-422 -408 -411 -432 -414 0
-422 -408 -411 -432 -426 0
-422 -408 -411 -414 -426 0
-422 -408 -432 -414 -426 0
-422 -420 -429 -411 -432 0
-422 -420 -429 -411 -414 0
-422 -420 -429 -411 -426 0
-422 -420 -429 -432 -414 0
-422 -420 -429 -432 -426 0
-422 -420 -429 -414 -426 0
-422 -420 -411 -432 -414 0
-422 -420 -411 -432 -426 0
-422 -420 -411 -414 -426 0
-422 -420 -432 -414 -426 0
-422 -429 -411 -432 -414 0
-422 -429 -411 -432 -426 0
-422 -429 -411 -414 -426 0
-422 -429 -432 -414 -426 0
-422 -411 -432 -414 -426 0
-422 408 420 429 411 432 0
-422 408 420 429 411 414 0
-422 408 420 429 411 426 0
-422 408 420 429 432 414 0
-422 408 420 429 432 426 0
-422 408 420 429 414 426 0
-422 408 420 411 432 414 0
-422 408 420 411 432 426 0
-422 408 420 411 414 426 0
-422 408 420 432 414 426 0
-422 408 429 411 432 414 0
-422 408 429 411 432 426 0
-422 408 429 411 414 426 0
-422 408 429 432 414 426 0
-422 408 411 432 414 426 0
-422 420 429 411 432 414 0
-422 420 429 411 432 426 0
-422 420 429 411 414 426 0
-422 420 429 432 414 426 0
-422 420 411 432 414 426 0
-422 429 411 432 414 426 0
-423 -406 -418 -427 -409 -430 0
-423 -406 -418 -427 -409 -412 0
-423 -406 -418 -427 -409 -424 0
-423 -406 -418 -427 -430 -412 0
-423 -406 -418 -427 -430 -424 0
-423 -406 -418 -427 -412 -424 0
-423 -406 -418 -409 -430 -412 0
-423 -406 -418 -409 -430 -424 0
-423 -406 -418 -409 -412 -424 0
-423 -406 -418 -430 -412 -424 0
-423 -406 -427 -409 -430 -412 0
-423 -406 -427 -409 -430 -424 0
-423 -406 -427 -409 -412 -424 0
-423 -406 -427 -430 -412 -424 0
-423 -406 -409 -430 -412 -424 0
-423 -418 -427 -409 -430 -412 0
-423 -418 -427 -409 -430 -424 0
-423 -418 -427 -409 -412 -424 0
-423 -418 -427 -430 -412 -424 0
-423 -418 -409 -430 -412 -424 0
-423 -427 -409 -430 -412 -424 0
-423 406 418 427 409 0
-423 406 418 427 430 0
-423 406 418 427 412 0
-423 406 418 427 424 0
-423 406 418 409 430 0
-423 406 418 409 412 0
-423 406 418 409 424 0
-423 406 418 430 412 0
-423 406 418 430 424 0
-423 406 418 412 424 0
-423 406 427 409 430 0
-423 406 427 409 412 0
-423 406 427 409 424 0
-423 406 427 430 412 0
-423 406 427 430 424 0
-423 406 427 412 424 0
-423 406 409 430 412 0
-423 406 409 430 424 0
-423 406 409 412 424 0
-423 406 430 412 424 0
-423 418 427 409 430 0
-423 418 427 409 412 0
-423 418 427 409 424 0
-423 418 427 430 412 0
-423 418 427 430 424 0
-423 418 427 412 424 0
-423 418 409 430 412 0
-423 418 409 430 424 0
-423 418 409 412 424 0
-423 418 430 412 424 0
-423 427 409 430 412 0
-423 427 409 430 424 0
-423 427 409 412 424 0
-423 427 430 412 424 0
-423 409 430 412 424 0
-424 -425 0
-424 -426 0
-425 -426 0
-424 -410 -422 -431 0
-424 -410 -422 -413 0
-424 -410 -422 -416 0
-424 -410 -431 -413 0
-424 -410 -431 -416 0
-424 -410 -413 -416 0
-424 -422 -431 -413 0
-424 -422 -431 -416 0
-424 -422 -413 -416 0
-424 -431 -413 -416 0
-424 410 422 431 413 0
-424 410 422 431 416 0
-424 410 422 413 416 0
-424 410 431 413 416 0
-424 422 431 413 416 0
-425 -411 -423 -432 -414 0
-425 -411 -423 -432 -417 0
-425 -411 -423 -414 -417 0
-425 -411 -432 -414 -417 0
-425 -423 -432 -414 -417 0
-425 411 423 432 0
-425 411 423 414 0
-425 411 423 417 0
-425 411 432 414 0
-425 411 432 417 0
-425 411 414 417 0
-425 423 432 414 0
-425 423 432 417 0
-425 423 414 417 0
-425 432 414 417 0
-426 -409 -421 -430 -412 -415 0
-426 409 421 0
-426 409 430 0
-426 409 412 0
-426 409 415 0
-426 421 430 0
-426 421 412 0
-426 421 415 0
-426 430 412 0
-426 430 415 0
-426 412 415 0
-427 -428 0
-427 -429 0
-428 -429 0
-430 -431 0
-430 -432 0
-431 -432 0
-430 -419 -428 -434 0
-430 -419 -428 -422 0
-430 -419 -428 -425 0
-430 -419 -434 -422 0
-430 -419 -434 -425 0
-430 -419 -422 -425 0
-430 -428 -434 -422 0
-430 -428 -434 -425 0
-430 -428 -422 -425 0
-430 -434 -422 -425 0
-430 419 428 434 422 0
-430 419 428 434 425 0
-430 419 428 422 425 0
-430 419 434 422 425 0
-430 428 434 422 425 0
-431 -420 -429 -435 -423 0
-431 -420 -429 -435 -426 0
-431 -420 -429 -423 -426 0
-431 -420 -435 -423 -426 0
-431 -429 -435 -423 -426 0
-431 420 429 435 0
-431 420 429 423 0
-431 420 429 426 0
-431 420 435 423 0
-431 420 435 426 0
-431 420 423 426 0
-431 429 435 423 0
-431 429 435 426 0
-431 429 423 426 0
-431 435 423 426 0
-432 -418 -427 -433 -421 -424 0
-432 418 427 0
-432 418 433 0
-432 418 421 0
-432 418 424 0
-432 427 433 0
-432 427 421 0
-432 427 424 0
-432 433 421 0
-432 433 424 0
-432 421 424 0
-433 -434 0
-433 -435 0
-434 -435 0
325 326 327 0
